 vasp.5.3.5 31Mar14 (build May 02 2014 07:30:07) complex

 executed on             LinuxIFC date 2015.08.11  23:20:40

 INCAR:
 POTCAR:    PAW C 22Mar2012
 POTCAR:    PAW N 21Mar2012
 POTCAR:    PAW H 06May1998
 POTCAR:    PAW Pb_d 30Apr1998
 POTCAR:    PAW I 03Oct2001
 POTCAR:    PAW C 22Mar2012
   VRHFIN =C: s2p2

   TITEL  = PAW C 22Mar2012
   POMASS =   12.011; ZVAL   =    4.000    mass and valenz
   ENMAX  =  400.000; ENMIN  =  300.000 eV

 POTCAR:    PAW N 21Mar2012
   VRHFIN =N: s2p3

   TITEL  = PAW N 21Mar2012
   POMASS =   14.001; ZVAL   =    5.000    mass and valenz
   ENMAX  =  400.000; ENMIN  =  300.000 eV

 POTCAR:    PAW H 06May1998
   VRHFIN =H: ultrasoft test

   TITEL  = PAW H 06May1998
   POMASS =    1.000; ZVAL   =    1.000    mass and valenz
   ENMAX  =  250.000; ENMIN  =  200.000 eV

 POTCAR:    PAW Pb_d 30Apr1998
   VRHFIN =Pb:

   TITEL  = PAW Pb_d 30Apr1998
   POMASS =  207.200; ZVAL   =   14.000    mass and valenz
   ENMAX  =  237.817; ENMIN  =  178.363 eV

 POTCAR:    PAW I 03Oct2001
   VRHFIN =I : s2p5

   TITEL  = PAW I 03Oct2001
   POMASS =  126.904; ZVAL   =    7.000    mass and valenz
   ENMAX  =  175.712; ENMIN  =  131.784 eV

 Optimization of the real space projectors (new method)

 maximal supplied QI-value         = 25.13
 optimisation between [QCUT,QGAM] = [ 10.05, 20.36] = [ 28.30,116.06] Ry
 Optimized for a Real-space Cutoff    1.30 Angstroem

   l    n(q)    QCUT    max X(q) W(low)/X(q) W(high)/X(q)  e(spline)
   0      8    10.053   112.725    0.49E-03    0.72E-03    0.18E-06
   0      8    10.053    84.246    0.49E-03    0.71E-03    0.18E-06
   1      7    10.053     4.395    0.34E-03    0.30E-03    0.19E-06
   1      7    10.053     2.668    0.25E-03    0.19E-03    0.21E-06
 Optimization of the real space projectors (new method)

[...]

   l    n(q)    QCUT    max X(q) W(low)/X(q) W(high)/X(q)  e(spline)
   2      8    10.129     3.832    0.68E-04    0.20E-03    0.43E-07
   2      8    10.129     8.557    0.31E-03    0.87E-04    0.80E-07
   0      9    10.129    20.058    0.18E-03    0.69E-04    0.52E-07
   0      9    10.129     8.581    0.26E-03    0.10E-03    0.74E-07
   1      8    10.129    32.418    0.10E-03    0.20E-03    0.14E-06
   1      8    10.129    15.589    0.88E-04    0.18E-03    0.13E-06
 Optimization of the real space projectors (new method)

 maximal supplied QI-value         = 16.25
 optimisation between [QCUT,QGAM] = [ 10.24, 20.48] = [ 29.35,117.42] Ry
 Optimized for a Real-space Cutoff    1.42 Angstroem

   l    n(q)    QCUT    max X(q) W(low)/X(q) W(high)/X(q)  e(spline)
   0      9    10.239   195.377    0.83E-04    0.12E-03    0.80E-07
   0      9    10.239   191.289    0.80E-04    0.11E-03    0.77E-07
   1      8    10.239   115.174    0.25E-03    0.31E-03    0.74E-07
   1      8    10.239    87.544    0.25E-03    0.30E-03    0.73E-07
   2      8    10.239     4.840    0.44E-04    0.82E-04    0.46E-07
  PAW C 22Mar2012                       :
  PAW N 21Mar2012                       :
  PAW H 06May1998                       :
  PAW Pb_d 30Apr1998                    :
  PAW I 03Oct2001                       :

 POSCAR: MA-Pb-I (Pseudocubic)
  positions in direct lattice
  velocities in cartesian coordinates
 exchange correlation table for  LEXCH =        2
   RHO(1)=    0.500       N(1)  =     2000
   RHO(2)=  100.500       N(2)  =     4000

 ion  position               nearest neighbor table
   1  0.902  1.000  0.996-   3 1.11   5 1.11   4 1.11   2 1.47
   2  0.134  1.000  0.023-   6 1.05   7 1.05   8 1.05   1 1.47
   3  0.863  1.000  0.824-   1 1.11
   4  0.835  0.145  0.071-   1 1.11
   5  0.835  0.855  0.071-   1 1.11
   6  0.206  0.136  0.960-   2 1.05
   7  0.205  0.863  0.961-   2 1.05
   8  0.183  0.000  0.182-   2 1.05
   9  0.480  0.500  0.484-  12 3.11  10 3.14  11 3.15  11 3.15  12 3.23  10 3.23
  10  0.400  0.500  0.991-   9 3.14   9 3.23
  11  0.447  0.000  0.512-   9 3.15   9 3.15
  12  0.989  0.500  0.422-   9 3.11   9 3.23

  LATTYP: Found a simple monoclinic cell.
 ALAT       =     6.2901201248
 B/A-ratio  =     0.9974197462
 C/A-ratio  =     1.4105278383
 COS(beta)  =    -0.7044835581

  Lattice vectors:

 A1 = (  -6.2901201248,   0.0000000000,   0.0000000000)
 A2 = (  -0.0000776940,  -6.2738900180,   0.0000000000)
 A3 = (   6.2504525538,  -0.0001537931,   6.2969150416)

Analysis of symmetry for initial positions (statically):
 Subroutine PRICEL returns:
 Original cell was already a primitive cell.

 Routine SETGRP: Setting up the symmetry group for a
 simple monoclinic supercell.

 Subroutine GETGRP returns: Found  1 space group operations
 (whereof  1 operations were pure point group operations)
 out of a pool of  4 trial point group operations.

The static configuration has the point symmetry C_1 .

Analysis of symmetry for dynamics (positions and initial velocities):
 Subroutine PRICEL returns:
 Original cell was already a primitive cell.

 Routine SETGRP: Setting up the symmetry group for a
 simple monoclinic supercell.

 Subroutine GETGRP returns: Found  1 space group operations
 (whereof  1 operations were pure point group operations)
 out of a pool of  4 trial point group operations.

The dynamic configuration has the point symmetry C_1 .

Analysis of magnetic symmetry:
 Subroutine PRICEL returns:
 Original cell was already a primitive cell.

 Subroutine MAGSYM returns: Found  1 space group operations
 (whereof  1 operations were pure point group operations)
 out of a pool of  1 trial space group operations
 (whereof  1 operations were pure point group operations)
 and found also     1 'primitive' translations

The magnetic configuration has the point symmetry C_1 .

 KPOINTS: k-points along high symmetry lines
  interpolating k-points between supplied coordinates
  k-points in reciprocal lattice
Space group operators:
 irot       det(A)        alpha          n_x          n_y          n_z        tau_x        tau_y        tau_z
    1     1.000000     0.000000     1.000000     0.000000     0.000000     0.000000     0.000000     0.000000

 I would recommend the setting:
   dimension x,y,z NGX =    31 NGY =   31 NGZ =   31
 SYSTEM =  unknown system
 POSCAR =  MA-Pb-I (Pseudocubic)

 Startparameter for this run:
   NWRITE =      2    write-flag & timer
   PREC   = normal    normal or accurate (medium, high low for compatibility)
   ISTART =      0    job   : 0-new  1-cont  2-samecut
   ICHARG =     11    charge: 1-file 2-atom 10-const
   ISPIN  =      2    spin polarized calculation?
   LNONCOLLINEAR =      F non collinear calculations
   LSORBIT =      F    spin-orbit coupling
   INIWAV =      1    electr: 0-lowe 1-rand  2-diag
   LASPH  =      T    aspherical Exc in radial PAW
   METAGGA=      F    non-selfconsistent MetaGGA calc.

 Electronic Relaxation 1
   ENCUT  =  400.0 eV  29.40 Ry    5.42 a.u.  10.26 10.23 10.27*2*pi/ulx,y,z
   ENINI  =  400.0     initial cutoff
   ENAUG  =  644.9 eV  augmentation charge cutoff
   NELM   =     60;   NELMIN=  2; NELMDL= -5     # of ELM steps
   EDIFF  = 0.1E-03   stopping-criterion for ELM
   LREAL  =      T    real-space projection
   NLSPLINE    = F    spline interpolate recip. space projectors
   LCOMPAT=      F    compatible to vasp.4.4
   GGA_COMPAT  = T    GGA compatible to vasp.4.4-vasp.4.6
   LMAXPAW     = -100 max onsite density
   LMAXMIX     =    4 max onsite mixed and CHGCAR
   VOSKOWN=      0    Vosko Wilk Nusair interpolation
   ROPT   =   -0.00050  -0.00050  -0.00050  -0.00050
   ROPT   =   -0.00050
 Ionic relaxation
   EDIFFG = -.2E-01   stopping-criterion for IOM
   NSW    =      0    number of steps for IOM
   NBLOCK =      1;   KBLOCK =      1    inner block; outer block
   IBRION =     -1    ionic relax: 0-MD 1-quasi-New 2-CG
   NFREE  =      1    steps in history (QN), initial steepest desc. (CG)
   ISIF   =      2    stress and relaxation
   IWAVPR =     10    prediction:  0-non 1-charg 2-wave 3-comb
   ISYM   =      2    0-nonsym 1-usesym 2-fastsym
   LCORR  =      T    Harris-Foulkes like correction to forces

   POTIM  = 0.5000    time-step for ionic-motion
   TEIN   =    0.0    initial temperature
   TEBEG  =    0.0;   TEEND  =   0.0 temperature during run
   SMASS  =  -3.00    Nose mass-parameter (am)
   estimated Nose-frequenzy (Omega)   =  0.10E-29 period in steps =****** mass=  -0.904E-27a.u.
   SCALEE = 1.0000    scale energy and forces
   NPACO  =    256;   APACO  = 16.0  distance and # of slots for P.C.
   PSTRESS=    0.0 pullay stress

  Mass of Ions in am
   POMASS =  12.01 14.00  1.00207.20126.90
  Ionic Valenz
   ZVAL   =   4.00  5.00  1.00 14.00  7.00
  Atomic Wigner-Seitz radii
  virtual crystal weights
   VCA    =   1.00  1.00  1.00  1.00  1.00
   NELECT =      49.0000    total number of electrons
   NUPDOWN=      -1.0000    fix difference up-down

 DOS related values:
   EMIN   =  10.00;   EMAX   =-10.00  energy-range for DOS
   EFERMI =   0.00
   ISMEAR =     0;   SIGMA  =   0.20  broadening in eV -4-tet -1-fermi 0-gaus

 Electronic relaxation 2 (details)
   IALGO  =     38    algorithm
   LDIAG  =      T    sub-space diagonalisation (order eigenvalues)
   LSUBROT=      F    optimize rotation matrix (better conditioning)
   TURBO    =      0    0=normal 1=particle mesh
   IRESTART =      0    0=no restart 2=restart with 2 vectors
   NREBOOT  =      0    no. of reboots
   NMIN     =      0    reboot dimension
   EREF     =   0.00    reference energy to select bands
   IMIX   =      4    mixing-type and parameters
     AMIX     =   0.40;   BMIX     =  1.00
     AMIX_MAG =   1.60;   BMIX_MAG =  1.00
     AMIN     =   0.10
     WC   =   100.;   INIMIX=   1;  MIXPRE=   1;  MAXMIX= -45

 Intra band minimization:
   WEIMIN = 0.0000     energy-eigenvalue tresh-hold
   EBREAK =  0.52E-06  absolut break condition
   DEPER  =   0.30     relativ break condition

   TIME   =   0.40     timestep for ELM

  volume/ion in A,a.u.               =      20.71       139.75
  Fermi-wavevector in a.u.,A,eV,Ry     =   0.952867  1.800658 12.353486  0.907956
  Thomas-Fermi vector in A             =   2.081469

 Write flags
   LWAVE  =      T    write WAVECAR
   LCHARG =      T    write CHGCAR
   LVTOT  =      F    write LOCPOT, total local potential
   LVHAR  =      F    write LOCPOT, Hartree potential only
   LELF   =      F    write electronic localiz. function (ELF)
   LORBIT =     11    0 simple, 1 ext, 2 COOP (PROOUT)

 Dipole corrections
   LMONO  =      F    monopole corrections only (constant potential shift)
   LDIPOL =      F    correct potential (dipole corrections)
   IDIPOL =      0    1-x, 2-y, 3-z, 4-all directions
   EPSILON=  1.0000000 bulk dielectric constant

 LDA+U is selected, type is set to LDAUTYPE =  2
   angular momentum for each species LDAUL =    -1   -1   -1   -1    1
   U (eV)           for each species LDAUU =   0.0  0.0  0.0  0.0  8.0
   J (eV)           for each species LDAUJ =   0.0  0.0  0.0  0.0  0.0
 Exchange correlation treatment:
   GGA     =    --    GGA type
   VOSKOWN=      0    Vosko Wilk Nusair interpolation
   LHFCALC =     F    Hartree Fock is set to
   LHFONE  =     F    Hartree Fock one center treatment
   AEXX    =    0.0000 exact exchange contribution

 Linear response parameters
[...]
 k-point ** :   0.1667 0.5000 0.5000  plane waves:    4516
 k-point ** :   0.1795 0.5000 0.5000  plane waves:    4518
 k-point ** :   0.1923 0.5000 0.5000  plane waves:    4520
 k-point ** :   0.2051 0.5000 0.5000  plane waves:    4522
 k-point ** :   0.2179 0.5000 0.5000  plane waves:    4526
 k-point ** :   0.2308 0.5000 0.5000  plane waves:    4528
 k-point ** :   0.2436 0.5000 0.5000  plane waves:    4524
 k-point ** :   0.2564 0.5000 0.5000  plane waves:    4530
 k-point ** :   0.2692 0.5000 0.5000  plane waves:    4526
 k-point ** :   0.2821 0.5000 0.5000  plane waves:    4524
 k-point ** :   0.2949 0.5000 0.5000  plane waves:    4522
 k-point ** :   0.3077 0.5000 0.5000  plane waves:    4520
 k-point ** :   0.3205 0.5000 0.5000  plane waves:    4526
 k-point ** :   0.3333 0.5000 0.5000  plane waves:    4526
 k-point ** :   0.3462 0.5000 0.5000  plane waves:    4522
 k-point ** :   0.3590 0.5000 0.5000  plane waves:    4530
 k-point ** :   0.3718 0.5000 0.5000  plane waves:    4530
 k-point ** :   0.3846 0.5000 0.5000  plane waves:    4537
 k-point ** :   0.3974 0.5000 0.5000  plane waves:    4546
 k-point ** :   0.4103 0.5000 0.5000  plane waves:    4550
 k-point ** :   0.4231 0.5000 0.5000  plane waves:    4552
 k-point ** :   0.4359 0.5000 0.5000  plane waves:    4556
 k-point ** :   0.4487 0.5000 0.5000  plane waves:    4558
 k-point ** :   0.4615 0.5000 0.5000  plane waves:    4566
 k-point ** :   0.4744 0.5000 0.5000  plane waves:    4582
 k-point ** :   0.4872 0.5000 0.5000  plane waves:    4587
[...]
 k-point ** :   0.5000 0.1795 0.5000  plane waves:    4521
 k-point ** :   0.5000 0.1667 0.5000  plane waves:    4518
 k-point ** :   0.5000 0.1538 0.5000  plane waves:    4508
 k-point ** :   0.5000 0.1410 0.5000  plane waves:    4506
 k-point ** :   0.5000 0.1282 0.5000  plane waves:    4506
 k-point ** :   0.5000 0.1154 0.5000  plane waves:    4508
 k-point ** :   0.5000 0.1026 0.5000  plane waves:    4508
 k-point ** :   0.5000 0.0897 0.5000  plane waves:    4498
 k-point ** :   0.5000 0.0769 0.5000  plane waves:    4498
 k-point ** :   0.5000 0.0641 0.5000  plane waves:    4504
 k-point ** :   0.5000 0.0513 0.5000  plane waves:    4504
 k-point ** :   0.5000 0.0385 0.5000  plane waves:    4502
 k-point ** :   0.5000 0.0256 0.5000  plane waves:    4498
 k-point ** :   0.5000 0.0128 0.5000  plane waves:    4500
 k-point ** :   0.5000 0.0000 0.5000  plane waves:    4504

 maximum and minimum number of plane-waves per node :       394      353

 maximum number of plane-waves:      4587
 maximum index in each direction:
   IXMAX=   10   IYMAX=   10   IZMAX=   10
   IXMIN=  -10   IYMIN=  -10   IZMIN=  -10

 WARNING: aliasing errors must be expected set NGX to  42 to avoid them
 WARNING: aliasing errors must be expected set NGY to  42 to avoid them
 WARNING: aliasing errors must be expected set NGZ to  42 to avoid them
 aliasing errors are usually negligible using standard VASP settings
 and one can safely disregard these warnings

 real space projection operators:
  max/ min on nodes  :        121.25         53.95

 parallel 3D FFT for wavefunctions:
    minimum data exchange during FFTs selected (reduces bandwidth)
 parallel 3D FFT for charge:
    minimum data exchange during FFTs selected (reduces bandwidth)

 initial charge density was supplied:
 number of electron      48.9999978 magnetization       1.0000001
 keeping initial charge density in first step

 Maximum index for non-local projection operator          166
 Maximum index for augmentation-charges          458 (set IRDMAX)

 First call to EWALD:  gamma=   0.282
 Maximum number of real-space cells 3x 3x 3
 Maximum number of reciprocal cells 3x 3x 3

 FEWALD executed in parallel

----------------------------------------- Iteration    1(   1)  ---------------------------------------

 eigenvalue-minimisations  : 84492
 total energy-change (2. order) : 0.3011543E+03  (-0.1631673E+04)
 number of electron      48.9999978 magnetization       1.0000001
 augmentation part       48.9999978 magnetization       1.0000001

 Free energy of the ion-electron system (eV)
  alpha Z        PSCENC =        42.87890246
  Ewald energy   TEWEN  =     -1938.09442919
  -Hartree energ DENC   =     -1049.37176208
  -exchange      EXHF   =         0.00000000
  -V(xc)+E(xc)   XCENC  =        48.15549806
  PAW double counting   =      3451.46418510    -3348.11773448
  entropy T*S    EENTRO =        -0.05354168
  eigenvalues    EBANDS =        -9.43149838
  atomic energy  EATOM  =      3103.72463619
  free energy    TOTEN  =       301.15425600 eV

  energy without entropy =      301.20779768  energy(sigma->0) =      301.18102684

[...]

 eigenvalue-minimisations  : 95376
 total energy-change (2. order) :-0.3075762E+03  (-0.2872770E+03)
 number of electron      48.9999978 magnetization       1.0000001
 augmentation part       48.9999978 magnetization       1.0000001

[...]

 eigenvalue-minimisations  :108012
 total energy-change (2. order) :-0.2911368E+02  (-0.2874829E+02)
 number of electron      48.9999978 magnetization       1.0000001
 augmentation part       48.9999978 magnetization       1.0000001

[...]

 eigenvalue-minimisations  :121752
 total energy-change (2. order) :-0.9111675E-03  (-0.9111607E-03)
 number of electron      48.9999978 magnetization       1.0000001
 augmentation part       48.9999978 magnetization       1.0000001

[...]

----------------------------------------- Iteration    1(   7)  ---------------------------------------

 eigenvalue-minimisations  : 93168
 total energy-change (2. order) :-0.1183214E-04  (-0.1183211E-04)
 number of electron      48.9999978 magnetization       1.0000001
 augmentation part       48.9999978 magnetization       1.0000001

 Free energy of the ion-electron system (eV)
  alpha Z        PSCENC =        42.87890246
  Ewald energy   TEWEN  =     -1938.09442919
  -Hartree energ DENC   =     -1049.37176208
  -exchange      EXHF   =         0.00000000
  -V(xc)+E(xc)   XCENC  =        48.15549806
  PAW double counting   =      3451.46418510    -3348.11773448
  entropy T*S    EENTRO =        -0.06948141
  eigenvalues    EBANDS =      -347.04283543
  atomic energy  EATOM  =      3103.72463619
  free energy    TOTEN  =       -36.47302079 eV

  energy without entropy =      -36.40353937  energy(sigma->0) =      -36.43828008

 average (electrostatic) potential at core
  the test charge radii are     0.6991  0.7536  0.5201  1.1541  1.1875
  (the norm of the test charge is              1.0000)
       1 -57.0996       2 -69.1478       3 -34.8984       4 -34.8144       5 -34.8078
       6 -37.4514       7 -37.4615       8 -37.3474       9 -95.7529      10 -95.2697
      11 -94.2342      12 -95.2892

 E-fermi :   1.1800     XC(G=0):  -7.8969     alpha+bet : -7.2485

 spin component 1

 k-point     1 :       0.5000    0.0000    0.5000
  band No.  band energies     occupation
      1     -17.6951      1.00000
      2     -15.3047      1.00000
      3     -15.2613      1.00000
      4     -15.2452      1.00000
      5     -15.2031      1.00000
      6     -15.1900      1.00000
      7     -11.3755      1.00000
      8     -11.2272      1.00000
      9     -10.6309      1.00000
     10     -10.3760      1.00000
     11      -7.4451      1.00000
     12      -6.9773      1.00000
     13      -6.7053      1.00000
     14      -5.3642      1.00000
     15      -3.0624      1.00000
     16      -2.8429      1.00000
     17      -1.9275      1.00000
     18      -1.6085      1.00000
     19      -0.7860      1.00000
     20      -0.6636      1.00000
     21      -0.5603      1.00000
     22      -0.3267      1.00000
     23      -0.2555      1.00000
     24      -0.0573      1.00000
     25       0.3952      1.00000
     26       3.1607      0.00000
     27       3.2651      0.00000
     28       6.2902      0.00000
     29       6.3828      0.00000
     30       6.7999      0.00000
     31       6.9816      0.00000
     32       7.4363      0.00000
     33       7.8983      0.00000
     34       8.0415      0.00000
     35       8.2815      0.00000
     36       8.5828      0.00000
     37       8.7427      0.00000
     38       8.9138      0.00000
     39       9.2997      0.00000
     40       9.5025      0.00000
     41       9.9415      0.00000
     42      10.1319      0.00000
     43      10.4661      0.00000
     44      10.7571      0.00000
     45      11.1907      0.00000
     46      11.3951      0.00000
     47      12.1699      0.00000
     48      12.2310      0.00000

[...]

 spin component 2

[...]

 k-point   440 :       0.5000    0.0000    0.5000
  band No.  band energies     occupation
      1     -17.6951      1.00000
      2     -15.2933      1.00000
      3     -15.2539      1.00000
      4     -15.2361      1.00000
      5     -15.1941      1.00000
      6     -15.1829      1.00000
      7     -11.1416      1.00000
      8     -10.9303      1.00000
      9     -10.5996      1.00000
     10     -10.3481      1.00000
     11      -7.4438      1.00000
     12      -6.9743      1.00000
     13      -6.6177      1.00000
     14      -5.3594      1.00000
     15      -3.0513      1.00000
     16      -2.8303      1.00000
     17      -1.5461      1.00000
     18      -0.8521      1.00000
     19      -0.6063      1.00000
     20      -0.3815      1.00000
     21      -0.2235      1.00000
     22      -0.0706      1.00000
     23       0.1203      1.00000
     24       0.8397      0.99194
     25       1.3525      0.11132
     26       3.3055      0.00000
     27       3.3456      0.00000
     28       6.3527      0.00000
     29       6.4294      0.00000
     30       6.9424      0.00000
     31       7.0290      0.00000
     32       7.5036      0.00000
     33       8.0158      0.00000
     34       8.0954      0.00000
     35       8.3831      0.00000
     36       8.6210      0.00000
     37       8.8264      0.00000
     38       8.9954      0.00000
     39       9.3429      0.00000
     40       9.5256      0.00000
     41       9.9735      0.00000
     42      10.2101      0.00000
     43      10.5603      0.00000
     44      10.7914      0.00000
     45      11.2282      0.00000
     46      11.6408      0.00000
     47      12.1886      0.00000
     48      12.3894      0.00000

 soft charge-density along one line, spin component           1
         0         1         2         3         4         5         6         7         8         9
 total charge-density along one line

 soft charge-density along one line, spin component           2
         0         1         2         3         4         5         6         7         8         9
 total charge-density along one line

------------------------ aborting loop because EDIFF is reached ----------------------------------------

 total charge

# of ion     s       p       d       tot
  1        0.828   1.770   0.000   2.598
  2        1.221   2.747   0.000   3.968
  3        0.613   0.043   0.000   0.656
  4        0.610   0.042   0.000   0.652
  5        0.610   0.042   0.000   0.652
  6        0.589   0.074   0.000   0.663
  7        0.589   0.074   0.000   0.663
  8        0.587   0.074   0.000   0.661
  9        1.418   0.426   9.843  11.687
 10        1.522   2.749   0.009   4.279
 11        1.508   2.607   0.007   4.122
 12        1.526   2.731   0.008   4.265
tot       11.621  13.378   9.866  34.865

 magnetization (x)

[...]

  FORCE on cell =-STRESS in cart. coord.  units (eV):
  Direction    XX          YY          ZZ          XY          YZ          ZX
  Alpha Z    42.87890    42.87890    42.87890
  Ewald    -641.02579  -614.94441  -682.12677    -0.05670    -0.07702    26.41830
  Hartree   345.67707   361.27333   332.22437    -0.05769    -0.00688    13.98789
  E(xc)    -194.10133  -194.09611  -194.06774     0.00482     0.00958    -0.19347
  Local    -605.92138  -638.94637  -550.05655     0.20835     0.27494   -43.73052
  n-local   450.81065   447.87700   447.27334    -0.07112    -0.12891     3.63587
  augment    12.49578    12.51368    13.12759     0.01621     0.03910    -1.33978
  Kinetic   577.25482   577.64142   579.20843    -0.10320    -0.26450     1.67474
  Fock        0.00000     0.00000     0.00000     0.00000     0.00000     0.00000
  Total     -11.93128    -5.80255   -11.53843    -0.05933    -0.15369     0.45302
  in kB     -76.92616   -37.41158   -74.39329    -0.38252    -0.99089     2.92083

 VOLUME and BASIS-vectors are now :
  energy-cutoff  :      400.00
  volume of cell :      248.50
      direct lattice vectors                 reciprocal lattice vectors
     6.290120125  0.000000000  0.000000000     0.158979476 -0.000001969  0.001001495
     0.000077694  6.273890018  0.000000000     0.000000000  0.159390744  0.000003893
    -0.039667571 -0.000153793  6.296915042     0.000000000  0.000000000  0.158807923

  length of vectors
     6.290120125  6.273890018  6.297039986     0.158982630  0.159390744  0.158807923

 FORCES acting on ions
    electron-ion (+dipol)            ewald-force                    non-local-force                 convergence-correction
   0.943E+02 -.549E-01 0.171E+02   -.102E+03 0.667E-01 -.186E+02   0.797E+01 -.887E-02 0.927E+00   -.501E+00 -.894E-02 0.472E+00
   -.438E+02 0.318E-02 0.665E+01   0.418E+02 -.868E-01 -.772E+01   0.112E+01 0.493E-02 0.111E+01   0.983E+00 0.729E-01 0.207E+00
   0.174E+02 0.566E-01 0.492E+02   -.185E+02 -.611E-01 -.542E+02   0.133E+01 0.684E-02 0.524E+01   -.144E+00 -.186E-02 -.115E+00
   0.262E+02 -.382E+02 -.168E+02   -.281E+02 0.426E+02 0.189E+02   0.217E+01 -.431E+01 -.224E+01   -.147E+00 -.233E+00 0.850E-01
   0.263E+02 0.381E+02 -.169E+02   -.282E+02 -.425E+02 0.190E+02   0.218E+01 0.430E+01 -.226E+01   -.148E+00 0.233E+00 0.827E-01
   -.273E+02 -.483E+02 0.262E+02   0.302E+02 0.540E+02 -.290E+02   -.289E+01 -.540E+01 0.246E+01   0.111E+00 -.293E+00 0.428E-02
   -.272E+02 0.484E+02 0.261E+02   0.301E+02 -.541E+02 -.288E+02   -.288E+01 0.541E+01 0.245E+01   0.114E+00 0.297E+00 -.564E-03
   -.169E+02 -.749E-01 -.591E+02   0.185E+02 0.721E-01 0.655E+02   -.197E+01 -.770E-02 -.632E+01   0.218E+00 0.634E-02 0.234E+00
   -.569E+02 -.989E-01 -.293E+02   0.639E+02 0.906E-01 0.319E+02   -.381E+01 0.516E-02 -.208E+01   -.248E+01 0.188E-02 -.305E+00
   -.144E+02 0.109E+00 0.199E+02   0.115E+02 -.344E-01 -.214E+02   0.128E+01 -.387E-01 0.105E+01   0.107E+01 -.218E-01 0.573E+00
   -.191E+02 0.625E-01 -.157E+02   0.173E+02 -.605E-01 0.176E+02   0.109E+01 -.403E-03 -.106E+01   0.514E+00 -.288E-02 -.665E+00
   0.338E+02 -.745E-02 -.853E+01   -.363E+02 -.163E-01 0.676E+01   0.136E+01 0.120E-01 0.608E+00   0.112E+01 0.631E-02 0.610E+00
   -.769E+01 -.303E-01 -.122E+01   0.782E-13 -.212E-13 0.169E-13   0.697E+01 -.312E-01 -.105E+00   0.709E+00 0.565E-01 0.118E+01

 POSITION                                       TOTAL-FORCE (eV/Angst)
      5.63546      6.27372      6.26939        -0.229888     -0.005535     -0.145037
      0.84009      6.27282      0.14343         0.030346     -0.005374      0.260141
      5.39264      6.27233      5.18684         0.054719      0.000852      0.213893
      5.25036      0.91104      0.44558         0.075013     -0.191189     -0.037625
      5.24889      5.36505      0.44845         0.077608      0.205724     -0.040379
      1.25492      0.85375      6.04643         0.065932     -0.047860     -0.277868
      1.25378      5.41567      6.04867         0.062397      0.039846     -0.270022
      1.14438      0.00004      1.14477        -0.125793     -0.003752      0.330002
      2.99776      3.13728      3.04923         0.653560     -0.000845      0.201625
      2.47750      3.13513      6.24021        -0.530157      0.014063      0.124062
      2.79046      0.00058      3.22320        -0.179011     -0.000868      0.184013
      6.20385      3.13752      2.65723         0.045274     -0.005061     -0.542806
    total drift:                               -0.016785     -0.005052     -0.146362

  FREE ENERGIE OF THE ION-ELECTRON SYSTEM (eV)
  free  energy   TOTEN  =       -36.47302079 eV

  energy  without entropy=      -36.40353937  energy(sigma->0) =      -36.43828008

 writing wavefunctions

 total charge

[...]

 magnetization (x)

# of ion     s       p       d       tot
  1       -0.000  -0.001   0.000  -0.001
  2       -0.000  -0.000   0.000  -0.001
  3       -0.000  -0.000   0.000  -0.000
  4        0.000  -0.000   0.000   0.000
  5        0.000  -0.000   0.000   0.000
  6       -0.000  -0.000   0.000  -0.000
  7       -0.000  -0.000   0.000  -0.000
  8       -0.000  -0.000   0.000  -0.000
  9        0.035  -0.025   0.001   0.011
 10        0.005   0.241  -0.000   0.246
 11        0.001   0.042  -0.000   0.043
 12        0.006   0.325  -0.000   0.330
tot        0.046   0.581   0.001   0.628