 vasp.5.3.5 31Mar14 (build May 02 2014 07:30:07) complex

 executed on             LinuxIFC date 2015.08.24  09:09:59

 INCAR:
 POTCAR:    PAW C 22Mar2012
 POTCAR:    PAW N 21Mar2012
 POTCAR:    PAW H 06May1998
 POTCAR:    PAW Pb_d 30Apr1998
 POTCAR:    PAW I 03Oct2001
 POTCAR:    PAW C 22Mar2012
   VRHFIN =C: s2p2

   TITEL  = PAW C 22Mar2012
   POMASS =   12.011; ZVAL   =    4.000    mass and valenz
   ENMAX  =  400.000; ENMIN  =  300.000 eV

 POTCAR:    PAW N 21Mar2012
   VRHFIN =N: s2p3

   TITEL  = PAW N 21Mar2012
   POMASS =   14.001; ZVAL   =    5.000    mass and valenz
   ENMAX  =  400.000; ENMIN  =  300.000 eV

 POTCAR:    PAW H 06May1998
   VRHFIN =H: ultrasoft test

   TITEL  = PAW H 06May1998
   POMASS =    1.000; ZVAL   =    1.000    mass and valenz
   ENMAX  =  250.000; ENMIN  =  200.000 eV

 POTCAR:    PAW Pb_d 30Apr1998
   VRHFIN =Pb:

   TITEL  = PAW Pb_d 30Apr1998
   POMASS =  207.200; ZVAL   =   14.000    mass and valenz
   ENMAX  =  237.817; ENMIN  =  178.363 eV

 POTCAR:    PAW I 03Oct2001
   VRHFIN =I : s2p5

   TITEL  = PAW I 03Oct2001
   POMASS =  126.904; ZVAL   =    7.000    mass and valenz
   ENMAX  =  175.712; ENMIN  =  131.784 eV

 Optimization of the real space projectors (new method)

 maximal supplied QI-value         = 25.13
 optimisation between [QCUT,QGAM] = [ 10.05, 20.36] = [ 28.30,116.06] Ry
 Optimized for a Real-space Cutoff    1.30 Angstroem

   l    n(q)    QCUT    max X(q) W(low)/X(q) W(high)/X(q)  e(spline)
   0      8    10.053   112.725    0.49E-03    0.72E-03    0.18E-06
   0      8    10.053    84.246    0.49E-03    0.71E-03    0.18E-06
   1      7    10.053     4.395    0.34E-03    0.30E-03    0.19E-06
   1      7    10.053     2.668    0.25E-03    0.19E-03    0.21E-06
 Optimization of the real space projectors (new method)

[...]

   l    n(q)    QCUT    max X(q) W(low)/X(q) W(high)/X(q)  e(spline)
   2      8    10.129     3.832    0.68E-04    0.20E-03    0.43E-07
   2      8    10.129     8.557    0.31E-03    0.87E-04    0.80E-07
   0      9    10.129    20.058    0.18E-03    0.69E-04    0.52E-07
   0      9    10.129     8.581    0.26E-03    0.10E-03    0.74E-07
   1      8    10.129    32.418    0.10E-03    0.20E-03    0.14E-06
   1      8    10.129    15.589    0.88E-04    0.18E-03    0.13E-06
 Optimization of the real space projectors (new method)

 maximal supplied QI-value         = 16.25
 optimisation between [QCUT,QGAM] = [ 10.24, 20.48] = [ 29.35,117.42] Ry
 Optimized for a Real-space Cutoff    1.42 Angstroem

   l    n(q)    QCUT    max X(q) W(low)/X(q) W(high)/X(q)  e(spline)
   0      9    10.239   195.377    0.83E-04    0.12E-03    0.80E-07
   0      9    10.239   191.289    0.80E-04    0.11E-03    0.77E-07
   1      8    10.239   115.174    0.25E-03    0.31E-03    0.74E-07
   1      8    10.239    87.544    0.25E-03    0.30E-03    0.73E-07
   2      8    10.239     4.840    0.44E-04    0.82E-04    0.46E-07
  PAW C 22Mar2012                       :
  PAW N 21Mar2012                       :
  PAW H 06May1998                       :
  PAW Pb_d 30Apr1998                    :
  PAW I 03Oct2001                       :

 POSCAR: MA-Pb-I (Pseudocubic)
  positions in direct lattice
  velocities in cartesian coordinates
 exchange correlation table for  LEXCH =        2
   RHO(1)=    0.500       N(1)  =     2000
   RHO(2)=  100.500       N(2)  =     4000

 ion  position               nearest neighbor table
   1  0.900  1.000  0.996-   5 1.10   4 1.10   3 1.11   2 1.47
   2  0.132  1.000  0.026-   6 1.04   7 1.04   8 1.05   1 1.47
   3  0.863  1.000  0.824-   1 1.11
   4  0.834  0.144  0.070-   1 1.10
   5  0.833  0.856  0.071-   1 1.10
   6  0.204  0.134  0.959-   2 1.04
   7  0.204  0.866  0.959-   2 1.04
   8  0.176  0.000  0.187-   2 1.05
   9  0.496  0.500  0.493-  11 3.16  11 3.16  12 3.16  10 3.18  12 3.21  10 3.23
  10  0.401  0.500  0.989-   9 3.18   9 3.23
  11  0.444  0.000  0.513-   9 3.16   9 3.16
  12  0.991  0.500  0.409-   9 3.16   9 3.21

  LATTYP: Found a simple monoclinic cell.
 ALAT       =     6.2901201248
 B/A-ratio  =     0.9974197462
 C/A-ratio  =     1.4105278383
 COS(beta)  =    -0.7044835581

  Lattice vectors:

 A1 = (  -6.2901201248,   0.0000000000,   0.0000000000)
 A2 = (  -0.0000776940,  -6.2738900180,   0.0000000000)
 A3 = (   6.2504525538,  -0.0001537931,   6.2969150416)

Analysis of symmetry for initial positions (statically):
 Subroutine PRICEL returns:
 Original cell was already a primitive cell.

 Routine SETGRP: Setting up the symmetry group for a
 simple monoclinic supercell.

 Subroutine GETGRP returns: Found  1 space group operations
 (whereof  1 operations were pure point group operations)
 out of a pool of  4 trial point group operations.

The static configuration has the point symmetry C_1 .

Analysis of symmetry for dynamics (positions and initial velocities):
 Subroutine PRICEL returns:
 Original cell was already a primitive cell.

 Routine SETGRP: Setting up the symmetry group for a
 simple monoclinic supercell.

 Subroutine GETGRP returns: Found  1 space group operations
 (whereof  1 operations were pure point group operations)
 out of a pool of  4 trial point group operations.

The dynamic configuration has the point symmetry C_1 .

Analysis of magnetic symmetry:
 Subroutine PRICEL returns:
 Original cell was already a primitive cell.

 Subroutine MAGSYM returns: Found  1 space group operations
 (whereof  1 operations were pure point group operations)
 out of a pool of  1 trial space group operations
 (whereof  1 operations were pure point group operations)
 and found also     1 'primitive' translations

The magnetic configuration has the point symmetry C_1 .

 KPOINTS: k-points along high symmetry lines
  interpolating k-points between supplied coordinates
  k-points in reciprocal lattice
Space group operators:
 irot       det(A)        alpha          n_x          n_y          n_z        tau_x        tau_y        tau_z
    1     1.000000     0.000000     1.000000     0.000000     0.000000     0.000000     0.000000     0.000000

 I would recommend the setting:
   dimension x,y,z NGX =    31 NGY =   31 NGZ =   31
 SYSTEM =  unknown system
 POSCAR =  MA-Pb-I (Pseudocubic)

 Startparameter for this run:
   NWRITE =      2    write-flag & timer
   PREC   = normal    normal or accurate (medium, high low for compatibility)
   ISTART =      0    job   : 0-new  1-cont  2-samecut
   ICHARG =     11    charge: 1-file 2-atom 10-const
   ISPIN  =      2    spin polarized calculation?
   LNONCOLLINEAR =      F non collinear calculations
   LSORBIT =      F    spin-orbit coupling
   INIWAV =      1    electr: 0-lowe 1-rand  2-diag
   LASPH  =      F    aspherical Exc in radial PAW
   METAGGA=      F    non-selfconsistent MetaGGA calc.

 Electronic Relaxation 1
   ENCUT  =  400.0 eV  29.40 Ry    5.42 a.u.  10.26 10.23 10.27*2*pi/ulx,y,z
   ENINI  =  400.0     initial cutoff
   ENAUG  =  644.9 eV  augmentation charge cutoff
   NELM   =     60;   NELMIN=  2; NELMDL= -5     # of ELM steps
   EDIFF  = 0.1E-03   stopping-criterion for ELM
   LREAL  =      T    real-space projection
   NLSPLINE    = F    spline interpolate recip. space projectors
   LCOMPAT=      F    compatible to vasp.4.4
   GGA_COMPAT  = T    GGA compatible to vasp.4.4-vasp.4.6
   LMAXPAW     = -100 max onsite density
   LMAXMIX     =    4 max onsite mixed and CHGCAR
   VOSKOWN=      0    Vosko Wilk Nusair interpolation
   ROPT   =   -0.00050  -0.00050  -0.00050  -0.00050
   ROPT   =   -0.00050
 Ionic relaxation
   EDIFFG = -.2E-01   stopping-criterion for IOM
   NSW    =      0    number of steps for IOM
   NBLOCK =      1;   KBLOCK =      1    inner block; outer block
   IBRION =     -1    ionic relax: 0-MD 1-quasi-New 2-CG
   NFREE  =      0    steps in history (QN), initial steepest desc. (CG)
   ISIF   =      2    stress and relaxation
   IWAVPR =     10    prediction:  0-non 1-charg 2-wave 3-comb
   ISYM   =      2    0-nonsym 1-usesym 2-fastsym
   LCORR  =      T    Harris-Foulkes like correction to forces

   POTIM  = 0.5000    time-step for ionic-motion
   TEIN   =    0.0    initial temperature
   TEBEG  =    0.0;   TEEND  =   0.0 temperature during run
   SMASS  =  -3.00    Nose mass-parameter (am)
   estimated Nose-frequenzy (Omega)   =  0.10E-29 period in steps =****** mass=  -0.904E-27a.u.
   SCALEE = 1.0000    scale energy and forces
   NPACO  =    256;   APACO  = 16.0  distance and # of slots for P.C.
   PSTRESS=    0.0 pullay stress

  Mass of Ions in am
   POMASS =  12.01 14.00  1.00207.20126.90
  Ionic Valenz
   ZVAL   =   4.00  5.00  1.00 14.00  7.00
  Atomic Wigner-Seitz radii
  virtual crystal weights
   VCA    =   1.00  1.00  1.00  1.00  1.00
   NELECT =      49.0000    total number of electrons
   NUPDOWN=      -1.0000    fix difference up-down

 DOS related values:
   EMIN   =  10.00;   EMAX   =-10.00  energy-range for DOS
   EFERMI =   0.00
   ISMEAR =     0;   SIGMA  =   0.20  broadening in eV -4-tet -1-fermi 0-gaus

 Electronic relaxation 2 (details)
   IALGO  =     38    algorithm
   LDIAG  =      T    sub-space diagonalisation (order eigenvalues)
   LSUBROT=      F    optimize rotation matrix (better conditioning)
   TURBO    =      0    0=normal 1=particle mesh
   IRESTART =      0    0=no restart 2=restart with 2 vectors
   NREBOOT  =      0    no. of reboots
   NMIN     =      0    reboot dimension
   EREF     =   0.00    reference energy to select bands
   IMIX   =      4    mixing-type and parameters
     AMIX     =   0.40;   BMIX     =  1.00
     AMIX_MAG =   1.60;   BMIX_MAG =  1.00
     AMIN     =   0.10
     WC   =   100.;   INIMIX=   1;  MIXPRE=   1;  MAXMIX= -45

 Intra band minimization:
   WEIMIN = 0.0000     energy-eigenvalue tresh-hold
   EBREAK =  0.56E-06  absolut break condition
   DEPER  =   0.30     relativ break condition

   TIME   =   0.40     timestep for ELM

  volume/ion in A,a.u.               =      20.71       139.75
  Fermi-wavevector in a.u.,A,eV,Ry     =   0.952867  1.800658 12.353486  0.907956
  Thomas-Fermi vector in A             =   2.081469

 Write flags
   LWAVE  =      T    write WAVECAR
   LCHARG =      T    write CHGCAR
   LVTOT  =      F    write LOCPOT, total local potential
   LVHAR  =      F    write LOCPOT, Hartree potential only
   LELF   =      F    write electronic localiz. function (ELF)
   LORBIT =     11    0 simple, 1 ext, 2 COOP (PROOUT)

 Dipole corrections
   LMONO  =      F    monopole corrections only (constant potential shift)
   LDIPOL =      F    correct potential (dipole corrections)
   IDIPOL =      0    1-x, 2-y, 3-z, 4-all directions
   EPSILON=  1.0000000 bulk dielectric constant

 Exchange correlation treatment:
   GGA     =    --    GGA type
   VOSKOWN=      0    Vosko Wilk Nusair interpolation
   LHFCALC =     F    Hartree Fock is set to
   LHFONE  =     F    Hartree Fock one center treatment
   AEXX    =    0.0000 exact exchange contribution

 Linear response parameters
   LEPSILON=     F    determine dielectric tensor
   LRPA    =     F    only Hartree local field effects (RPA)
   LNABLA  =     F    use nabla operator in PAW spheres
   LVEL    =     F    velocity operator in full k-point grid
   LINTERFAST=   F  fast interpolation
[...]
 k-point ** :   0.1154 0.5000 0.5000  plane waves:    4520
 k-point ** :   0.1282 0.5000 0.5000  plane waves:    4516
 k-point ** :   0.1410 0.5000 0.5000  plane waves:    4511
 k-point ** :   0.1538 0.5000 0.5000  plane waves:    4512
 k-point ** :   0.1667 0.5000 0.5000  plane waves:    4516
 k-point ** :   0.1795 0.5000 0.5000  plane waves:    4518
 k-point ** :   0.1923 0.5000 0.5000  plane waves:    4520
 k-point ** :   0.2051 0.5000 0.5000  plane waves:    4522
 k-point ** :   0.2179 0.5000 0.5000  plane waves:    4526
 k-point ** :   0.2308 0.5000 0.5000  plane waves:    4528
 k-point ** :   0.2436 0.5000 0.5000  plane waves:    4524
 k-point ** :   0.2564 0.5000 0.5000  plane waves:    4530
 k-point ** :   0.2692 0.5000 0.5000  plane waves:    4526
 k-point ** :   0.2821 0.5000 0.5000  plane waves:    4524
 k-point ** :   0.2949 0.5000 0.5000  plane waves:    4522
 k-point ** :   0.3077 0.5000 0.5000  plane waves:    4520
 k-point ** :   0.3205 0.5000 0.5000  plane waves:    4526
 k-point ** :   0.3333 0.5000 0.5000  plane waves:    4526
 k-point ** :   0.3462 0.5000 0.5000  plane waves:    4522
 k-point ** :   0.3590 0.5000 0.5000  plane waves:    4530
 k-point ** :   0.3718 0.5000 0.5000  plane waves:    4530
 k-point ** :   0.3846 0.5000 0.5000  plane waves:    4537
 k-point ** :   0.3974 0.5000 0.5000  plane waves:    4546
 k-point ** :   0.4103 0.5000 0.5000  plane waves:    4550
 k-point ** :   0.4231 0.5000 0.5000  plane waves:    4552
 k-point ** :   0.4359 0.5000 0.5000  plane waves:    4556
 k-point ** :   0.4487 0.5000 0.5000  plane waves:    4558
 k-point ** :   0.4615 0.5000 0.5000  plane waves:    4566
 k-point ** :   0.4744 0.5000 0.5000  plane waves:    4582
 k-point ** :   0.4872 0.5000 0.5000  plane waves:    4587
[...]
 k-point ** :   0.5000 0.1795 0.5000  plane waves:    4521
 k-point ** :   0.5000 0.1667 0.5000  plane waves:    4518
 k-point ** :   0.5000 0.1538 0.5000  plane waves:    4508
 k-point ** :   0.5000 0.1410 0.5000  plane waves:    4506
 k-point ** :   0.5000 0.1282 0.5000  plane waves:    4506
 k-point ** :   0.5000 0.1154 0.5000  plane waves:    4508
 k-point ** :   0.5000 0.1026 0.5000  plane waves:    4508
 k-point ** :   0.5000 0.0897 0.5000  plane waves:    4498
 k-point ** :   0.5000 0.0769 0.5000  plane waves:    4498
 k-point ** :   0.5000 0.0641 0.5000  plane waves:    4504
 k-point ** :   0.5000 0.0513 0.5000  plane waves:    4504
 k-point ** :   0.5000 0.0385 0.5000  plane waves:    4502
 k-point ** :   0.5000 0.0256 0.5000  plane waves:    4498
 k-point ** :   0.5000 0.0128 0.5000  plane waves:    4500
 k-point ** :   0.5000 0.0000 0.5000  plane waves:    4504

 maximum and minimum number of plane-waves per node :       528      481

 maximum number of plane-waves:      4587
 maximum index in each direction:
   IXMAX=   10   IYMAX=   10   IZMAX=   10
   IXMIN=  -10   IYMIN=  -10   IZMIN=  -10

 WARNING: aliasing errors must be expected set NGX to  42 to avoid them
 WARNING: aliasing errors must be expected set NGY to  42 to avoid them
 WARNING: aliasing errors must be expected set NGZ to  42 to avoid them
 aliasing errors are usually negligible using standard VASP settings
 and one can safely disregard these warnings

 real space projection operators:
  max/ min on nodes  :        147.91         96.59

 parallel 3D FFT for wavefunctions:
    minimum data exchange during FFTs selected (reduces bandwidth)
 parallel 3D FFT for charge:
    minimum data exchange during FFTs selected (reduces bandwidth)

 initial charge density was supplied:
 number of electron      49.0000003 magnetization      -0.0000000
 keeping initial charge density in first step

 Maximum index for non-local projection operator          256
 Maximum index for augmentation-charges          458 (set IRDMAX)

 First call to EWALD:  gamma=   0.282
 Maximum number of real-space cells 3x 3x 3
 Maximum number of reciprocal cells 3x 3x 3

 FEWALD executed in parallel

----------------------------------------- Iteration    1(   1)  ---------------------------------------

 eigenvalue-minimisations  : 79335
 total energy-change (2. order) : 0.2933892E+03  (-0.1653446E+04)
 number of electron      49.0000003 magnetization      -0.0000000
 augmentation part       49.0000003 magnetization      -0.0000000

 Free energy of the ion-electron system (eV)
  alpha Z        PSCENC =        42.87890246
  Ewald energy   TEWEN  =     -1945.16705899
  -Hartree energ DENC   =     -1039.86322216
  -exchange      EXHF   =         0.00000000
  -V(xc)+E(xc)   XCENC  =        48.10422098
  PAW double counting   =      3524.58900458    -3436.16227098
  entropy T*S    EENTRO =        -0.05015240
  eigenvalues    EBANDS =        -4.66482525
  atomic energy  EATOM  =      3103.72463619
  free energy    TOTEN  =       293.38923443 eV

  energy without entropy =      293.43938683  energy(sigma->0) =      293.41431063

[...]

 eigenvalue-minimisations  : 91179
 total energy-change (2. order) :-0.3137131E+03  (-0.2965322E+03)
 number of electron      49.0000003 magnetization      -0.0000000
 augmentation part       49.0000003 magnetization      -0.0000000

[...]

 eigenvalue-minimisations  :101007
 total energy-change (2. order) :-0.3265433E+02  (-0.3231745E+02)
 number of electron      49.0000003 magnetization      -0.0000000
 augmentation part       49.0000003 magnetization      -0.0000000

[...]

 eigenvalue-minimisations  :114876
 total energy-change (2. order) :-0.8974387E-03  (-0.8974240E-03)
 number of electron      49.0000003 magnetization      -0.0000000
 augmentation part       49.0000003 magnetization      -0.0000000

[...]

----------------------------------------- Iteration    1(   7)  ---------------------------------------

 eigenvalue-minimisations  : 82458
 total energy-change (2. order) :-0.1293536E-04  (-0.1293530E-04)
 number of electron      49.0000003 magnetization      -0.0000000
 augmentation part       49.0000003 magnetization      -0.0000000

 Free energy of the ion-electron system (eV)
  alpha Z        PSCENC =        42.87890246
  Ewald energy   TEWEN  =     -1945.16705899
  -Hartree energ DENC   =     -1039.86322216
  -exchange      EXHF   =         0.00000000
  -V(xc)+E(xc)   XCENC  =        48.10422098
  PAW double counting   =      3524.58900458    -3436.16227098
  entropy T*S    EENTRO =        -0.10629482
  eigenvalues    EBANDS =      -352.27689385
  atomic energy  EATOM  =      3103.72463619
  free energy    TOTEN  =       -54.27897658 eV

  energy without entropy =      -54.17268176  energy(sigma->0) =      -54.22582917

 average (electrostatic) potential at core
  the test charge radii are     0.6991  0.7536  0.5201  1.1541  1.1875
  (the norm of the test charge is              1.0000)
       1 -57.0993       2 -69.2227       3 -34.8930       4 -34.9240       5 -34.9271
       6 -37.4962       7 -37.4908       8 -37.4224       9 -96.1130      10 -94.8659
      11 -94.6275      12 -94.8439

 E-fermi :   0.5440     XC(G=0):  -7.9002     alpha+bet : -7.2485

 spin component 1

 k-point     1 :       0.5000    0.0000    0.5000
  band No.  band energies     occupation
      1     -17.7069      1.00000
      2     -15.6083      1.00000
      3     -15.5968      1.00000
      4     -15.5687      1.00000
      5     -15.5538      1.00000
      6     -15.5456      1.00000
      7     -10.9841      1.00000
      8     -10.7872      1.00000
      9     -10.7189      1.00000
     10     -10.5171      1.00000
     11      -7.3605      1.00000
     12      -7.2052      1.00000
     13      -6.8579      1.00000
     14      -5.3325      1.00000
     15      -3.0743      1.00000
     16      -2.9361      1.00000
     17      -2.1533      1.00000
     18      -1.3225      1.00000
     19      -0.6255      1.00000
     20      -0.5087      1.00000
     21      -0.4260      1.00000
     22      -0.1809      1.00000
     23      -0.1790      1.00000
     24       0.2525      0.98038
     25       0.4334      0.78295
     26       3.2283      0.00000
     27       3.2787      0.00000
     28       5.8286      0.00000
     29       6.3920      0.00000
     30       6.7423      0.00000
     31       6.9738      0.00000
     32       7.4525      0.00000
     33       8.0498      0.00000
     34       8.1452      0.00000
     35       8.4445      0.00000
     36       8.4930      0.00000
     37       8.7431      0.00000
     38       9.0358      0.00000
     39       9.3241      0.00000
     40       9.4701      0.00000
     41       9.8739      0.00000
     42      10.1620      0.00000
     43      10.5481      0.00000
     44      10.6652      0.00000
     45      11.3535      0.00000

[...]

 spin component 2

[...]

 k-point   440 :       0.5000    0.0000    0.5000
  band No.  band energies     occupation
      1     -17.7069      1.00000
      2     -15.6083      1.00000
      3     -15.5968      1.00000
      4     -15.5687      1.00000
      5     -15.5538      1.00000
      6     -15.5456      1.00000
      7     -10.9841      1.00000
      8     -10.7872      1.00000
      9     -10.7189      1.00000
     10     -10.5171      1.00000
     11      -7.3605      1.00000
     12      -7.2052      1.00000
     13      -6.8579      1.00000
     14      -5.3325      1.00000
     15      -3.0743      1.00000
     16      -2.9361      1.00000
     17      -2.1533      1.00000
     18      -1.3225      1.00000
     19      -0.6255      1.00000
     20      -0.5087      1.00000
     21      -0.4260      1.00000
     22      -0.1809      1.00000
     23      -0.1790      1.00000
     24       0.2525      0.98038
     25       0.4334      0.78295
     26       3.2283      0.00000
     27       3.2787      0.00000
     28       5.8286      0.00000
     29       6.3920      0.00000
     30       6.7423      0.00000
     31       6.9738      0.00000
     32       7.4525      0.00000
     33       8.0498      0.00000
     34       8.1452      0.00000
     35       8.4445      0.00000
     36       8.4930      0.00000
     37       8.7431      0.00000
     38       9.0358      0.00000
     39       9.3241      0.00000
     40       9.4701      0.00000
     41       9.8739      0.00000
     42      10.1620      0.00000
     43      10.5481      0.00000
     44      10.6652      0.00000
     45      11.4242      0.00000

 soft charge-density along one line, spin component           1
         0         1         2         3         4         5         6         7         8         9
 total charge-density along one line

 soft charge-density along one line, spin component           2
         0         1         2         3         4         5         6         7         8         9
 total charge-density along one line

------------------------ aborting loop because EDIFF is reached ----------------------------------------

 total charge

# of ion     s       p       d       tot
  1        0.830   1.779   0.000   2.609
  2        1.222   2.748   0.000   3.970
  3        0.615   0.043   0.000   0.658
  4        0.618   0.044   0.000   0.661
  5        0.618   0.044   0.000   0.662
  6        0.590   0.075   0.000   0.665
  7        0.589   0.075   0.000   0.664
  8        0.584   0.073   0.000   0.657
  9        1.401   0.410   9.844  11.655
 10        1.517   2.784   0.008   4.310
 11        1.511   2.705   0.007   4.223
 12        1.521   2.748   0.007   4.276
tot       11.617  13.527   9.865  35.010

 magnetization (x)

[...]

  FORCE on cell =-STRESS in cart. coord.  units (eV):
  Direction    XX          YY          ZZ          XY          YZ          ZX
  Alpha Z    42.87890    42.87890    42.87890
  Ewald    -637.53538  -623.56203  -684.07184    -0.05496    -0.06370     9.43305
  Hartree   348.08781   358.33783   327.46359    -0.06429     0.02232     6.58300
  E(xc)    -194.11428  -194.15327  -194.24129     0.00602     0.00687    -0.06350
  Local    -610.92675  -629.48556  -545.46237     0.25460     0.16707   -17.17548
  n-local   450.31145   447.81408   449.57625    -0.10256    -0.10700     1.45763
  augment    13.28821    13.23202    12.76320     0.02519     0.03107    -0.56394
  Kinetic   577.35829   577.41475   580.59308    -0.11917    -0.21981     0.65679
  Fock        0.00000     0.00000     0.00000     0.00000     0.00000     0.00000
  Total     -10.65175    -7.52327   -10.50047    -0.05516    -0.16318     0.32755
  in kB     -68.67648   -48.50576   -67.70109    -0.35566    -1.05209     2.11186

 VOLUME and BASIS-vectors are now :
  energy-cutoff  :      400.00
  volume of cell :      248.50
      direct lattice vectors                 reciprocal lattice vectors
     6.290120125  0.000000000  0.000000000     0.158979476 -0.000001969  0.001001495
     0.000077694  6.273890018  0.000000000     0.000000000  0.159390744  0.000003893
    -0.039667571 -0.000153793  6.296915042     0.000000000  0.000000000  0.158807923

  length of vectors
     6.290120125  6.273890018  6.297039986     0.158982630  0.159390744  0.158807923

 FORCES acting on ions
    electron-ion (+dipol)            ewald-force                    non-local-force                 convergence-correction
   0.917E+02 -.468E-01 0.197E+02   -.994E+02 0.556E-01 -.207E+02   0.809E+01 -.560E-02 0.993E+00   -.266E+00 0.206E-03 -.982E-01
   -.454E+02 0.159E-01 0.244E+01   0.442E+02 -.525E-01 -.270E+01   0.889E+00 0.132E-01 0.234E+00   0.124E+00 0.146E-01 0.517E-01
   0.164E+02 0.500E-01 0.498E+02   -.176E+02 -.561E-01 -.549E+02   0.126E+01 0.580E-02 0.530E+01   -.810E-01 0.114E-03 -.876E-01
   0.264E+02 -.385E+02 -.168E+02   -.286E+02 0.431E+02 0.191E+02   0.222E+01 -.444E+01 -.230E+01   -.105E+00 -.704E-01 0.128E-01
   0.265E+02 0.385E+02 -.170E+02   -.287E+02 -.430E+02 0.193E+02   0.224E+01 0.444E+01 -.231E+01   -.106E+00 0.685E-01 0.128E-01
   -.277E+02 -.480E+02 0.279E+02   0.306E+02 0.536E+02 -.306E+02   -.291E+01 -.535E+01 0.272E+01   0.380E-01 -.119E+00 -.566E-01
   -.275E+02 0.481E+02 0.277E+02   0.304E+02 -.536E+02 -.304E+02   -.289E+01 0.535E+01 0.270E+01   0.377E-01 0.123E+00 -.572E-01
   -.147E+02 -.622E-01 -.599E+02   0.163E+02 0.633E-01 0.661E+02   -.167E+01 -.590E-02 -.636E+01   0.941E-01 0.221E-02 0.104E+00
   -.511E+02 0.673E-01 -.244E+02   0.560E+02 0.177E-01 0.268E+02   -.183E+01 -.297E-01 -.109E+01   -.226E+01 -.523E-01 -.941E+00
   -.111E+02 0.523E-01 0.113E+02   0.689E+01 -.357E-01 -.112E+02   0.267E+01 -.745E-02 -.139E+00   0.119E+01 -.721E-02 -.432E-01
   -.135E+02 -.199E-01 -.139E+02   0.110E+02 0.682E-02 0.151E+02   0.163E+01 -.493E-02 -.857E+00   0.579E+00 0.119E-01 -.254E+00
   0.215E+02 0.880E-01 -.808E+01   -.213E+02 -.163E-01 0.400E+01   -.566E+00 -.542E-01 0.256E+01   0.181E+00 -.132E-01 0.113E+01
   -.859E+01 0.132E+00 -.127E+01   0.355E-14 -.250E-14 -.213E-13   0.913E+01 -.928E-01 0.147E+01   -.575E+00 -.418E-01 -.228E+00

 POSITION                                       TOTAL-FORCE (eV/Angst)
      5.62315      6.27370      6.26890         0.036884      0.003624     -0.104669
      0.83101      6.27307      0.16482        -0.190477     -0.008660      0.025270
      5.39632      6.27246      5.18743         0.021592      0.000066      0.078525
      5.24016      0.90290      0.44226        -0.013352      0.016560      0.014119
      5.23854      5.37351      0.44492        -0.009773     -0.007504      0.014716
      1.24535      0.83851      6.03868         0.053390      0.105446      0.003496
      1.24397      5.43090      6.04095         0.052740     -0.111132      0.010334
      1.09837      0.00014      1.17929         0.031910     -0.002325     -0.013682
      3.10141      3.13702      3.10466         0.775725      0.003211      0.331365
      2.48183      3.13577      6.22647        -0.390925      0.002169     -0.086079
      2.76967     -0.00000      3.22809        -0.210953     -0.005954      0.108589
      6.22031      3.13694      2.57695        -0.156760      0.004499     -0.381985
    total drift:                               -0.035407     -0.002739     -0.028114

  FREE ENERGIE OF THE ION-ELECTRON SYSTEM (eV)
  free  energy   TOTEN  =       -54.27897658 eV

  energy  without entropy=      -54.17268176  energy(sigma->0) =      -54.22582917

 writing wavefunctions

 total charge

[...]

 magnetization (x)

# of ion     s       p       d       tot
  1       -0.000   0.000   0.000   0.000
  2       -0.000   0.000   0.000   0.000
  3       -0.000  -0.000   0.000  -0.000
  4       -0.000   0.000   0.000  -0.000
  5       -0.000   0.000   0.000  -0.000
  6       -0.000   0.000   0.000  -0.000
  7       -0.000  -0.000   0.000  -0.000
  8       -0.000   0.000   0.000  -0.000
  9       -0.000  -0.000   0.000  -0.000
 10       -0.000  -0.000  -0.000  -0.000
 11       -0.000  -0.000  -0.000  -0.000
 12        0.000  -0.000  -0.000  -0.000
tot       -0.000  -0.000   0.000  -0.000