 vasp.5.3.5 31Mar14 (build May 02 2014 07:30:07) complex

 executed on             LinuxIFC date 2015.08.24  14:02:44

 INCAR:
 POTCAR:    PAW C 22Mar2012
 POTCAR:    PAW N 21Mar2012
 POTCAR:    PAW H 06May1998
 POTCAR:    PAW Pb_d 30Apr1998
 POTCAR:    PAW I 03Oct2001
 POTCAR:    PAW C 22Mar2012
   VRHFIN =C: s2p2

   TITEL  = PAW C 22Mar2012
   POMASS =   12.011; ZVAL   =    4.000    mass and valenz
   ENMAX  =  400.000; ENMIN  =  300.000 eV

 POTCAR:    PAW N 21Mar2012
   VRHFIN =N: s2p3

   TITEL  = PAW N 21Mar2012
   POMASS =   14.001; ZVAL   =    5.000    mass and valenz
   ENMAX  =  400.000; ENMIN  =  300.000 eV

 POTCAR:    PAW H 06May1998
   VRHFIN =H: ultrasoft test

   TITEL  = PAW H 06May1998
   POMASS =    1.000; ZVAL   =    1.000    mass and valenz
   ENMAX  =  250.000; ENMIN  =  200.000 eV

 POTCAR:    PAW Pb_d 30Apr1998
   VRHFIN =Pb:

   TITEL  = PAW Pb_d 30Apr1998
   POMASS =  207.200; ZVAL   =   14.000    mass and valenz
   ENMAX  =  237.817; ENMIN  =  178.363 eV

 POTCAR:    PAW I 03Oct2001
   VRHFIN =I : s2p5

   TITEL  = PAW I 03Oct2001
   POMASS =  126.904; ZVAL   =    7.000    mass and valenz
   ENMAX  =  175.712; ENMIN  =  131.784 eV

 Optimization of the real space projectors (new method)

 maximal supplied QI-value         = 25.13
 optimisation between [QCUT,QGAM] = [ 10.05, 20.36] = [ 28.30,116.06] Ry
 Optimized for a Real-space Cutoff    1.30 Angstroem

   l    n(q)    QCUT    max X(q) W(low)/X(q) W(high)/X(q)  e(spline)
   0      8    10.053   112.725    0.49E-03    0.72E-03    0.18E-06
   0      8    10.053    84.246    0.49E-03    0.71E-03    0.18E-06
   1      7    10.053     4.395    0.34E-03    0.30E-03    0.19E-06
   1      7    10.053     2.668    0.25E-03    0.19E-03    0.21E-06
 Optimization of the real space projectors (new method)

[...]

   l    n(q)    QCUT    max X(q) W(low)/X(q) W(high)/X(q)  e(spline)
   2      8    10.129     3.832    0.68E-04    0.20E-03    0.43E-07
   2      8    10.129     8.557    0.31E-03    0.87E-04    0.80E-07
   0      9    10.129    20.058    0.18E-03    0.69E-04    0.52E-07
   0      9    10.129     8.581    0.26E-03    0.10E-03    0.74E-07
   1      8    10.129    32.418    0.10E-03    0.20E-03    0.14E-06
   1      8    10.129    15.589    0.88E-04    0.18E-03    0.13E-06
 Optimization of the real space projectors (new method)

 maximal supplied QI-value         = 16.25
 optimisation between [QCUT,QGAM] = [ 10.24, 20.48] = [ 29.35,117.42] Ry
 Optimized for a Real-space Cutoff    1.42 Angstroem

   l    n(q)    QCUT    max X(q) W(low)/X(q) W(high)/X(q)  e(spline)
   0      9    10.239   195.377    0.83E-04    0.12E-03    0.80E-07
   0      9    10.239   191.289    0.80E-04    0.11E-03    0.77E-07
   1      8    10.239   115.174    0.25E-03    0.31E-03    0.74E-07
   1      8    10.239    87.544    0.25E-03    0.30E-03    0.73E-07
   2      8    10.239     4.840    0.44E-04    0.82E-04    0.46E-07
  PAW C 22Mar2012                       :
  PAW N 21Mar2012                       :
  PAW H 06May1998                       :
  PAW Pb_d 30Apr1998                    :
  PAW I 03Oct2001                       :

 POSCAR: MAPbI3 1x1x1
  positions in direct lattice
  velocities in cartesian coordinates
 exchange correlation table for  LEXCH =        2
   RHO(1)=    0.500       N(1)  =     2000
   RHO(2)=  100.500       N(2)  =     4000

 ion  position               nearest neighbor table
   1  0.903  1.000  0.996-   3 1.10   5 1.10   4 1.10   2 1.48
   2  0.137  1.000  0.025-   6 1.04   7 1.04   8 1.05   1 1.48
   3  0.865  1.000  0.826-   1 1.10
   4  0.838  0.144  0.072-   1 1.10
   5  0.838  0.857  0.072-   1 1.10
   6  0.208  0.134  0.958-   2 1.04
   7  0.207  0.865  0.958-   2 1.04
   8  0.182  0.000  0.185-   2 1.05
   9  0.485  0.501  0.495-  12 2.92  10 3.10  11 3.14  11 3.15  10 3.39  12 3.52
  10  0.360  0.499  0.018-   9 3.10  12 3.11   9 3.39
  11  0.466  0.001  0.523-   9 3.14   9 3.15
  12  0.033  0.499  0.387-   9 2.92  10 3.11   9 3.52

  LATTYP: Found a simple monoclinic cell.
 ALAT       =     6.2901201200
 B/A-ratio  =     0.9974197473
 C/A-ratio  =     1.4105278388
 COS(beta)  =    -0.7044835580

  Lattice vectors:

 A1 = (  -6.2901201200,   0.0000000000,   0.0000000000)
 A2 = (  -0.0000776900,  -6.2738900200,   0.0000000000)
 A3 = (   6.2504525500,  -0.0001537900,   6.2969150400)

Analysis of symmetry for initial positions (statically):
 Subroutine PRICEL returns:
 Original cell was already a primitive cell.

 Routine SETGRP: Setting up the symmetry group for a
 simple monoclinic supercell.

 Subroutine GETGRP returns: Found  1 space group operations
 (whereof  1 operations were pure point group operations)
 out of a pool of  4 trial point group operations.

The static configuration has the point symmetry C_1 .

Analysis of symmetry for dynamics (positions and initial velocities):
 Subroutine PRICEL returns:
 Original cell was already a primitive cell.

 Routine SETGRP: Setting up the symmetry group for a
 simple monoclinic supercell.

 Subroutine GETGRP returns: Found  1 space group operations
 (whereof  1 operations were pure point group operations)
 out of a pool of  4 trial point group operations.

The dynamic configuration has the point symmetry C_1 .

Analysis of magnetic symmetry:
 Subroutine PRICEL returns:
 Original cell was already a primitive cell.

 Subroutine MAGSYM returns: Found  1 space group operations
 (whereof  1 operations were pure point group operations)
 out of a pool of  1 trial space group operations
 (whereof  1 operations were pure point group operations)
 and found also     1 'primitive' translations

The magnetic configuration has the point symmetry C_1 .

 KPOINTS: k-points along high symmetry lines
  interpolating k-points between supplied coordinates
  k-points in reciprocal lattice
Space group operators:
 irot       det(A)        alpha          n_x          n_y          n_z        tau_x        tau_y        tau_z
    1     1.000000     0.000000     1.000000     0.000000     0.000000     0.000000     0.000000     0.000000

 I would recommend the setting:
   dimension x,y,z NGX =    31 NGY =   31 NGZ =   31
 SYSTEM =  MAPbI3
 POSCAR =  MAPbI3 1x1x1

 Startparameter for this run:
   NWRITE =      2    write-flag & timer
   PREC   = normal    normal or accurate (medium, high low for compatibility)
   ISTART =      0    job   : 0-new  1-cont  2-samecut
   ICHARG =     11    charge: 1-file 2-atom 10-const
   ISPIN  =      2    spin polarized calculation?
   LNONCOLLINEAR =      F non collinear calculations
   LSORBIT =      F    spin-orbit coupling
   INIWAV =      1    electr: 0-lowe 1-rand  2-diag
   LASPH  =      T    aspherical Exc in radial PAW
   METAGGA=      F    non-selfconsistent MetaGGA calc.

 Electronic Relaxation 1
   ENCUT  =  400.0 eV  29.40 Ry    5.42 a.u.  10.26 10.23 10.27*2*pi/ulx,y,z
   ENINI  =  400.0     initial cutoff
   ENAUG  =  644.9 eV  augmentation charge cutoff
   NELM   =     60;   NELMIN=  2; NELMDL= -5     # of ELM steps
   EDIFF  = 0.1E-03   stopping-criterion for ELM
   LREAL  =      T    real-space projection
   NLSPLINE    = F    spline interpolate recip. space projectors
   LCOMPAT=      F    compatible to vasp.4.4
   GGA_COMPAT  = T    GGA compatible to vasp.4.4-vasp.4.6
   LMAXPAW     = -100 max onsite density
   LMAXMIX     =    4 max onsite mixed and CHGCAR
   VOSKOWN=      0    Vosko Wilk Nusair interpolation
   ROPT   =   -0.00050  -0.00050  -0.00050  -0.00050
   ROPT   =   -0.00050
 Ionic relaxation
   EDIFFG = 0.1E-02   stopping-criterion for IOM
   NSW    =      0    number of steps for IOM
   NBLOCK =      1;   KBLOCK =      1    inner block; outer block
   IBRION =     -1    ionic relax: 0-MD 1-quasi-New 2-CG
   NFREE  =      0    steps in history (QN), initial steepest desc. (CG)
   ISIF   =      2    stress and relaxation
   IWAVPR =     10    prediction:  0-non 1-charg 2-wave 3-comb
   ISYM   =      2    0-nonsym 1-usesym 2-fastsym
   LCORR  =      T    Harris-Foulkes like correction to forces

   POTIM  = 0.5000    time-step for ionic-motion
   TEIN   =    0.0    initial temperature
   TEBEG  =    0.0;   TEEND  =   0.0 temperature during run
   SMASS  =  -3.00    Nose mass-parameter (am)
   estimated Nose-frequenzy (Omega)   =  0.10E-29 period in steps =****** mass=  -0.904E-27a.u.
   SCALEE = 1.0000    scale energy and forces
   NPACO  =    256;   APACO  = 16.0  distance and # of slots for P.C.
   PSTRESS=    0.0 pullay stress

  Mass of Ions in am
   POMASS =  12.01 14.00  1.00207.20126.90
  Ionic Valenz
   ZVAL   =   4.00  5.00  1.00 14.00  7.00
  Atomic Wigner-Seitz radii
  virtual crystal weights
   VCA    =   1.00  1.00  1.00  1.00  1.00
   NELECT =      49.0000    total number of electrons
   NUPDOWN=      -1.0000    fix difference up-down

 DOS related values:
   EMIN   =  10.00;   EMAX   =-10.00  energy-range for DOS
   EFERMI =   0.00
   ISMEAR =     0;   SIGMA  =   0.20  broadening in eV -4-tet -1-fermi 0-gaus

 Electronic relaxation 2 (details)
   IALGO  =     38    algorithm
   LDIAG  =      T    sub-space diagonalisation (order eigenvalues)
   LSUBROT=      F    optimize rotation matrix (better conditioning)
   TURBO    =      0    0=normal 1=particle mesh
   IRESTART =      0    0=no restart 2=restart with 2 vectors
   NREBOOT  =      0    no. of reboots
   NMIN     =      0    reboot dimension
   EREF     =   0.00    reference energy to select bands
   IMIX   =      4    mixing-type and parameters
     AMIX     =   0.40;   BMIX     =  1.00
     AMIX_MAG =   1.60;   BMIX_MAG =  1.00
     AMIN     =   0.10
     WC   =   100.;   INIMIX=   1;  MIXPRE=   1;  MAXMIX= -45

 Intra band minimization:
   WEIMIN = 0.0000     energy-eigenvalue tresh-hold
   EBREAK =  0.56E-06  absolut break condition
   DEPER  =   0.30     relativ break condition

   TIME   =   0.40     timestep for ELM

  volume/ion in A,a.u.               =      20.71       139.75
  Fermi-wavevector in a.u.,A,eV,Ry     =   0.952867  1.800658 12.353486  0.907956
  Thomas-Fermi vector in A             =   2.081469

 Write flags
   LWAVE  =      T    write WAVECAR
   LCHARG =      T    write CHGCAR
   LVTOT  =      F    write LOCPOT, total local potential
   LVHAR  =      F    write LOCPOT, Hartree potential only
   LELF   =      F    write electronic localiz. function (ELF)
   LORBIT =     11    0 simple, 1 ext, 2 COOP (PROOUT)

 Dipole corrections
   LMONO  =      F    monopole corrections only (constant potential shift)
   LDIPOL =      F    correct potential (dipole corrections)
   IDIPOL =      0    1-x, 2-y, 3-z, 4-all directions
   EPSILON=  1.0000000 bulk dielectric constant

 LDA+U is selected, type is set to LDAUTYPE =  2
   angular momentum for each species LDAUL =    -1   -1   -1   -1    1
   U (eV)           for each species LDAUU =   0.0  0.0  0.0  0.0  8.0
   J (eV)           for each species LDAUJ =   0.0  0.0  0.0  0.0  0.0
 Exchange correlation treatment:
   GGA     =    --    GGA type
   VOSKOWN=      0    Vosko Wilk Nusair interpolation
   LHFCALC =     F    Hartree Fock is set to
   LHFONE  =     F    Hartree Fock one center treatment
   AEXX    =    0.0000 exact exchange contribution

 Linear response parameters
[...]
 k-point ** :   0.1154 0.5000 0.5000  plane waves:    4520
 k-point ** :   0.1282 0.5000 0.5000  plane waves:    4516
 k-point ** :   0.1410 0.5000 0.5000  plane waves:    4511
 k-point ** :   0.1538 0.5000 0.5000  plane waves:    4512
 k-point ** :   0.1667 0.5000 0.5000  plane waves:    4516
 k-point ** :   0.1795 0.5000 0.5000  plane waves:    4518
 k-point ** :   0.1923 0.5000 0.5000  plane waves:    4520
 k-point ** :   0.2051 0.5000 0.5000  plane waves:    4522
 k-point ** :   0.2179 0.5000 0.5000  plane waves:    4526
 k-point ** :   0.2308 0.5000 0.5000  plane waves:    4528
 k-point ** :   0.2436 0.5000 0.5000  plane waves:    4524
 k-point ** :   0.2564 0.5000 0.5000  plane waves:    4530
 k-point ** :   0.2692 0.5000 0.5000  plane waves:    4526
 k-point ** :   0.2821 0.5000 0.5000  plane waves:    4524
 k-point ** :   0.2949 0.5000 0.5000  plane waves:    4522
 k-point ** :   0.3077 0.5000 0.5000  plane waves:    4520
 k-point ** :   0.3205 0.5000 0.5000  plane waves:    4526
 k-point ** :   0.3333 0.5000 0.5000  plane waves:    4526
 k-point ** :   0.3462 0.5000 0.5000  plane waves:    4522
 k-point ** :   0.3590 0.5000 0.5000  plane waves:    4530
 k-point ** :   0.3718 0.5000 0.5000  plane waves:    4530
 k-point ** :   0.3846 0.5000 0.5000  plane waves:    4537
 k-point ** :   0.3974 0.5000 0.5000  plane waves:    4546
 k-point ** :   0.4103 0.5000 0.5000  plane waves:    4550
 k-point ** :   0.4231 0.5000 0.5000  plane waves:    4552
 k-point ** :   0.4359 0.5000 0.5000  plane waves:    4556
 k-point ** :   0.4487 0.5000 0.5000  plane waves:    4558
 k-point ** :   0.4615 0.5000 0.5000  plane waves:    4566
 k-point ** :   0.4744 0.5000 0.5000  plane waves:    4582
 k-point ** :   0.4872 0.5000 0.5000  plane waves:    4587
[...]
 k-point ** :   0.5000 0.1795 0.5000  plane waves:    4521
 k-point ** :   0.5000 0.1667 0.5000  plane waves:    4518
 k-point ** :   0.5000 0.1538 0.5000  plane waves:    4508
 k-point ** :   0.5000 0.1410 0.5000  plane waves:    4506
 k-point ** :   0.5000 0.1282 0.5000  plane waves:    4506
 k-point ** :   0.5000 0.1154 0.5000  plane waves:    4508
 k-point ** :   0.5000 0.1026 0.5000  plane waves:    4508
 k-point ** :   0.5000 0.0897 0.5000  plane waves:    4498
 k-point ** :   0.5000 0.0769 0.5000  plane waves:    4498
 k-point ** :   0.5000 0.0641 0.5000  plane waves:    4504
 k-point ** :   0.5000 0.0513 0.5000  plane waves:    4504
 k-point ** :   0.5000 0.0385 0.5000  plane waves:    4502
 k-point ** :   0.5000 0.0256 0.5000  plane waves:    4498
 k-point ** :   0.5000 0.0128 0.5000  plane waves:    4500
 k-point ** :   0.5000 0.0000 0.5000  plane waves:    4504

 maximum and minimum number of plane-waves per node :       528      481

 maximum number of plane-waves:      4587
 maximum index in each direction:
   IXMAX=   10   IYMAX=   10   IZMAX=   10
   IXMIN=  -10   IYMIN=  -10   IZMIN=  -10

 WARNING: aliasing errors must be expected set NGX to  42 to avoid them
 WARNING: aliasing errors must be expected set NGY to  42 to avoid them
 WARNING: aliasing errors must be expected set NGZ to  42 to avoid them
 aliasing errors are usually negligible using standard VASP settings
 and one can safely disregard these warnings

 real space projection operators:
  max/ min on nodes  :        144.40        100.60

 parallel 3D FFT for wavefunctions:
    minimum data exchange during FFTs selected (reduces bandwidth)
 parallel 3D FFT for charge:
    minimum data exchange during FFTs selected (reduces bandwidth)

 initial charge density was supplied:
 number of electron      48.9999943 magnetization       1.0000000
 keeping initial charge density in first step

 Maximum index for non-local projection operator          228
 Maximum index for augmentation-charges          443 (set IRDMAX)

 First call to EWALD:  gamma=   0.282
 Maximum number of real-space cells 3x 3x 3
 Maximum number of reciprocal cells 3x 3x 3

 FEWALD executed in parallel

----------------------------------------- Iteration    1(   1)  ---------------------------------------

 eigenvalue-minimisations  : 79254
 total energy-change (2. order) : 0.3129616E+03  (-0.1650289E+04)
 number of electron      48.9999943 magnetization       1.0000000
 augmentation part       48.9999943 magnetization       1.0000000

 Free energy of the ion-electron system (eV)
  alpha Z        PSCENC =        42.87890249
  Ewald energy   TEWEN  =     -1917.64729046
  -Hartree energ DENC   =     -1069.11084891
  -exchange      EXHF   =         0.00000000
  -V(xc)+E(xc)   XCENC  =        48.44394013
  PAW double counting   =      3502.82955174    -3399.60748682
  entropy T*S    EENTRO =        -0.05375285
  eigenvalues    EBANDS =         1.50396214
  atomic energy  EATOM  =      3103.72463619
  free energy    TOTEN  =       312.96161365 eV

  energy without entropy =      313.01536651  energy(sigma->0) =      312.98849008

[...]

 eigenvalue-minimisations  : 90738
 total energy-change (2. order) :-0.3152800E+03  (-0.2971910E+03)
 number of electron      48.9999943 magnetization       1.0000000
 augmentation part       48.9999943 magnetization       1.0000000

[...]

 eigenvalue-minimisations  :101610
 total energy-change (2. order) :-0.3308900E+02  (-0.3275666E+02)
 number of electron      48.9999943 magnetization       1.0000000
 augmentation part       48.9999943 magnetization       1.0000000

[...]

 eigenvalue-minimisations  :114597
 total energy-change (2. order) :-0.7387576E-03  (-0.7387476E-03)
 number of electron      48.9999943 magnetization       1.0000000
 augmentation part       48.9999943 magnetization       1.0000000

[...]

----------------------------------------- Iteration    1(   7)  ---------------------------------------

 eigenvalue-minimisations  : 81369
 total energy-change (2. order) :-0.1196782E-04  (-0.1196774E-04)
 number of electron      48.9999943 magnetization       1.0000000
 augmentation part       48.9999943 magnetization       1.0000000

 Free energy of the ion-electron system (eV)
  alpha Z        PSCENC =        42.87890249
  Ewald energy   TEWEN  =     -1917.64729046
  -Hartree energ DENC   =     -1069.11084891
  -exchange      EXHF   =         0.00000000
  -V(xc)+E(xc)   XCENC  =        48.44394013
  PAW double counting   =      3502.82955174    -3399.60748682
  entropy T*S    EENTRO =        -0.01559590
  eigenvalues    EBANDS =      -348.22781624
  atomic energy  EATOM  =      3103.72463619
  free energy    TOTEN  =       -36.73200778 eV

  energy without entropy =      -36.71641188  energy(sigma->0) =      -36.72420983

 average (electrostatic) potential at core
  the test charge radii are     0.6991  0.7536  0.5201  1.1541  1.1875
  (the norm of the test charge is              1.0000)
       1 -57.1028       2 -69.1868       3 -34.8987       4 -34.9817       5 -34.9815
       6 -37.5072       7 -37.5066       8 -37.3884       9 -95.6735      10 -95.3107
      11 -94.1570      12 -95.2671

 E-fermi :   1.4687     XC(G=0):  -7.8507     alpha+bet : -7.2485

 spin component 1

 k-point     1 :       0.5000    0.0000    0.5000
  band No.  band energies     occupation
      1     -17.6623      1.00000
      2     -15.2475      1.00000
      3     -15.2186      1.00000
      4     -15.1704      1.00000
      5     -15.1337      1.00000
      6     -15.1132      1.00000
      7     -11.8525      1.00000
      8     -11.0686      1.00000
      9     -10.6232      1.00000
     10     -10.2690      1.00000
     11      -7.4629      1.00000
     12      -7.1266      1.00000
     13      -6.5811      1.00000
     14      -5.2814      1.00000
     15      -3.1617      1.00000
     16      -2.9674      1.00000
     17      -2.5627      1.00000
     18      -1.6735      1.00000
     19      -0.9637      1.00000
     20      -0.8157      1.00000
     21      -0.4208      1.00000
     22      -0.3724      1.00000
     23      -0.1990      1.00000
     24       0.2322      1.00000
     25       0.4665      1.00000
     26       3.4487      0.00000
     27       3.8471      0.00000
     28       6.2175      0.00000
     29       6.3338      0.00000
     30       6.5891      0.00000
     31       7.0845      0.00000
     32       7.3142      0.00000
     33       7.8541      0.00000
     34       7.9424      0.00000
     35       8.4795      0.00000
     36       8.6743      0.00000
     37       8.7219      0.00000
     38       9.0954      0.00000
     39       9.1745      0.00000
     40       9.5123      0.00000
     41       9.8865      0.00000
     42       9.9278      0.00000
     43      10.8475      0.00000
     44      11.1254      0.00000
     45      11.4150      0.00000

[...]

 spin component 2

[...]

 k-point   440 :       0.5000    0.0000    0.5000
  band No.  band energies     occupation
      1     -17.6623      1.00000
      2     -15.2360      1.00000
      3     -15.2104      1.00000
      4     -15.1624      1.00000
      5     -15.1261      1.00000
      6     -15.1078      1.00000
      7     -11.5803      1.00000
      8     -10.8714      1.00000
      9     -10.5450      1.00000
     10     -10.2356      1.00000
     11      -7.4600      1.00000
     12      -7.1251      1.00000
     13      -6.4820      1.00000
     14      -5.2777      1.00000
     15      -3.1517      1.00000
     16      -2.9581      1.00000
     17      -1.6310      1.00000
     18      -1.2471      1.00000
     19      -0.8065      1.00000
     20      -0.3929      1.00000
     21      -0.1958      1.00000
     22      -0.1183      1.00000
     23       0.0279      1.00000
     24       0.3985      1.00000
     25       1.8451      0.00389
     26       3.8668      0.00000
     27       3.9458      0.00000
     28       6.2912      0.00000
     29       6.3632      0.00000
     30       6.6816      0.00000
     31       7.1399      0.00000
     32       7.3900      0.00000
     33       7.9186      0.00000
     34       8.0277      0.00000
     35       8.5499      0.00000
     36       8.7409      0.00000
     37       8.7776      0.00000
     38       9.1257      0.00000
     39       9.2560      0.00000
     40       9.5498      0.00000
     41       9.9173      0.00000
     42      10.0233      0.00000
     43      10.8906      0.00000
     44      11.2173      0.00000
     45      11.4627      0.00000

 soft charge-density along one line, spin component           1
         0         1         2         3         4         5         6         7         8         9
 total charge-density along one line

 soft charge-density along one line, spin component           2
         0         1         2         3         4         5         6         7         8         9
 total charge-density along one line

------------------------ aborting loop because EDIFF is reached ----------------------------------------

 total charge

# of ion     s       p       d       tot
  1        0.832   1.776   0.000   2.608
  2        1.223   2.743   0.000   3.965
  3        0.618   0.045   0.000   0.663
  4        0.620   0.044   0.000   0.664
  5        0.620   0.044   0.000   0.664
  6        0.591   0.076   0.000   0.667
  7        0.591   0.075   0.000   0.666
  8        0.584   0.072   0.000   0.656
  9        1.463   0.462   9.842  11.768
 10        1.529   2.688   0.017   4.234
 11        1.508   2.734   0.007   4.248
 12        1.532   2.665   0.017   4.213
tot       11.710  13.424   9.882  35.016

 magnetization (x)

[...]

  FORCE on cell =-STRESS in cart. coord.  units (eV):
  Direction    XX          YY          ZZ          XY          YZ          ZX
  Alpha Z    42.87890    42.87890    42.87890
  Ewald    -667.88433  -569.49847  -680.26671     1.19871     1.02929    43.86226
  Hartree   323.26973   411.45252   332.15889     0.65040     0.56620    29.08833
  E(xc)    -194.42614  -194.75306  -194.27580     0.00348     0.00811    -0.28495
  Local    -554.50795  -746.75735  -545.57477    -1.74933    -1.37488   -79.83080
  n-local   454.60717   456.85622   448.17174    -0.04583    -0.12073     5.81412
  augment    11.89507    10.67496    13.03880     0.01805     0.04575    -1.89102
  Kinetic   578.05944   584.84893   576.83579    -0.10934    -0.25857     2.65834
  Fock        0.00000     0.00000     0.00000     0.00000     0.00000     0.00000
  Total      -6.10810    -4.29734    -7.03315    -0.03386    -0.10483    -0.58371
  in kB     -39.38157   -27.70681   -45.34580    -0.21829    -0.67587    -3.76346

 VOLUME and BASIS-vectors are now :
  energy-cutoff  :      400.00
  volume of cell :      248.50
      direct lattice vectors                 reciprocal lattice vectors
     6.290120120  0.000000000  0.000000000     0.158979476 -0.000001969  0.001001495
     0.000077690  6.273890020  0.000000000     0.000000000  0.159390744  0.000003893
    -0.039667570 -0.000153790  6.296915040     0.000000000  0.000000000  0.158807923

  length of vectors
     6.290120120  6.273890020  6.297039984     0.158982630  0.159390744  0.158807923

 FORCES acting on ions
    electron-ion (+dipol)            ewald-force                    non-local-force                 convergence-correction
   0.950E+02 0.103E+00 0.196E+02   -.103E+03 -.104E+00 -.208E+02   0.826E+01 -.494E-02 0.122E+01   -.187E+00 -.148E-02 -.397E-02
   -.415E+02 0.467E+00 0.637E+01   0.404E+02 -.441E+00 -.708E+01   0.870E+00 -.388E-01 0.751E+00   -.189E+00 -.104E-02 0.855E-01
   0.172E+02 0.920E-01 0.499E+02   -.185E+02 -.989E-01 -.554E+02   0.133E+01 0.734E-02 0.539E+01   -.355E-01 -.788E-03 -.267E-01
   0.277E+02 -.391E+02 -.171E+02   -.299E+02 0.436E+02 0.195E+02   0.219E+01 -.446E+01 -.235E+01   -.637E-01 -.382E-02 0.142E-01
   0.277E+02 0.390E+02 -.172E+02   -.299E+02 -.435E+02 0.196E+02   0.220E+01 0.445E+01 -.236E+01   -.642E-01 0.162E-02 0.155E-01
   -.275E+02 -.464E+02 0.291E+02   0.304E+02 0.518E+02 -.319E+02   -.287E+01 -.532E+01 0.271E+01   -.123E-01 -.382E-01 -.821E-02
   -.275E+02 0.467E+02 0.289E+02   0.304E+02 -.521E+02 -.317E+02   -.287E+01 0.533E+01 0.269E+01   -.120E-01 0.392E-01 -.936E-02
   -.158E+02 0.261E-01 -.604E+02   0.176E+02 -.203E-01 0.668E+02   -.177E+01 -.665E-02 -.638E+01   -.575E-02 -.258E-03 0.120E-01
   -.104E+03 -.817E+00 -.575E+02   0.113E+03 0.790E+00 0.611E+02   -.699E+01 0.315E-01 -.299E+01   -.111E+01 0.116E-01 -.201E+00
   -.206E+02 -.244E+00 0.509E+02   0.175E+02 0.230E+00 -.517E+02   0.202E+01 0.235E-01 0.409E+00   0.113E+01 0.315E-02 -.352E-01
   -.273E+02 0.336E-01 -.163E+02   0.255E+02 -.291E-01 0.179E+02   0.828E+00 -.367E-02 -.995E+00   0.604E+00 -.500E-02 -.374E+00
   0.925E+02 -.326E-01 -.166E+02   -.939E+02 -.692E-01 0.137E+02   0.881E+00 0.611E-01 0.166E+01   -.831E-01 0.258E-01 0.101E+01
   -.403E+01 -.119E+00 -.287E+00   0.284E-13 -.108E-13 -.124E-13   0.408E+01 0.715E-01 -.243E+00   -.356E-01 0.309E-01 0.477E+00

 POSITION                                       TOTAL-FORCE (eV/Angst)
      5.63915      6.27350      6.27384         0.426252     -0.006087      0.033435
      0.85821      6.27280      0.15665        -0.375157     -0.012650      0.136003
      5.40518      6.27196      5.19958        -0.037567      0.001003     -0.093221
      5.26698      0.90190      0.45292        -0.067470      0.035694      0.061110
      5.26573      5.37368      0.45579        -0.065609     -0.022034      0.058648
      1.26776      0.84227      6.03329         0.044424      0.019916     -0.081652
      1.26657      5.42716      6.03557         0.042653     -0.031501     -0.076648
      1.13753     -0.00001      1.16715         0.030699      0.000219      0.066531
      3.02824      3.14188      3.11751         0.938970      0.018145      0.385194
      2.26072      3.12777      0.11089        -0.040779      0.013494     -0.435326
      2.91350      0.00315      3.29534        -0.337458     -0.002699      0.183124
      0.19135      3.13057      2.43562        -0.558958     -0.013500     -0.237199
    total drift:                                0.013645     -0.016825     -0.052487

  FREE ENERGIE OF THE ION-ELECTRON SYSTEM (eV)
  free  energy   TOTEN  =       -36.73200778 eV

  energy  without entropy=      -36.71641188  energy(sigma->0) =      -36.72420983

 writing wavefunctions

 total charge

[...]

 magnetization (x)

# of ion     s       p       d       tot
  1       -0.000  -0.000   0.000  -0.000
  2       -0.000   0.000   0.000  -0.000
  3       -0.000  -0.000   0.000  -0.000
  4        0.000  -0.000   0.000   0.000
  5        0.000  -0.000   0.000   0.000
  6       -0.000  -0.000   0.000  -0.000
  7       -0.000  -0.000   0.000  -0.000
  8       -0.000   0.000   0.000  -0.000
  9        0.016  -0.006   0.003   0.013
 10        0.012   0.310   0.002   0.325
 11        0.000   0.025  -0.000   0.025
 12        0.011   0.376   0.001   0.388
tot        0.039   0.705   0.006   0.750