 vasp.5.3.5 31Mar14 (build May 02 2014 07:30:07) complex

 executed on             LinuxIFC date 2015.08.18  10:40:29

 INCAR:
 POTCAR:    PAW C 22Mar2012
 POTCAR:    PAW N 21Mar2012
 POTCAR:    PAW H 06May1998
 POTCAR:    PAW Pb_d 30Apr1998
 POTCAR:    PAW I 03Oct2001
 POTCAR:    PAW C 22Mar2012
   VRHFIN =C: s2p2

   TITEL  = PAW C 22Mar2012
   POMASS =   12.011; ZVAL   =    4.000    mass and valenz
   ENMAX  =  400.000; ENMIN  =  300.000 eV

 POTCAR:    PAW N 21Mar2012
   VRHFIN =N: s2p3

   TITEL  = PAW N 21Mar2012
   POMASS =   14.001; ZVAL   =    5.000    mass and valenz
   ENMAX  =  400.000; ENMIN  =  300.000 eV

 POTCAR:    PAW H 06May1998
   VRHFIN =H: ultrasoft test

   TITEL  = PAW H 06May1998
   POMASS =    1.000; ZVAL   =    1.000    mass and valenz
   ENMAX  =  250.000; ENMIN  =  200.000 eV

 POTCAR:    PAW Pb_d 30Apr1998
   VRHFIN =Pb:

   TITEL  = PAW Pb_d 30Apr1998
   POMASS =  207.200; ZVAL   =   14.000    mass and valenz
   ENMAX  =  237.817; ENMIN  =  178.363 eV

 POTCAR:    PAW I 03Oct2001
   VRHFIN =I : s2p5

   TITEL  = PAW I 03Oct2001
   POMASS =  126.904; ZVAL   =    7.000    mass and valenz
   ENMAX  =  175.712; ENMIN  =  131.784 eV

 Optimization of the real space projectors (new method)

 maximal supplied QI-value         = 25.13
 optimisation between [QCUT,QGAM] = [ 10.05, 20.36] = [ 28.30,116.06] Ry
 Optimized for a Real-space Cutoff    1.30 Angstroem

   l    n(q)    QCUT    max X(q) W(low)/X(q) W(high)/X(q)  e(spline)
   0      8    10.053   112.725    0.49E-03    0.72E-03    0.18E-06
   0      8    10.053    84.246    0.49E-03    0.71E-03    0.18E-06
   1      7    10.053     4.395    0.34E-03    0.30E-03    0.19E-06
   1      7    10.053     2.668    0.25E-03    0.19E-03    0.21E-06
 Optimization of the real space projectors (new method)

[...]

   l    n(q)    QCUT    max X(q) W(low)/X(q) W(high)/X(q)  e(spline)
   2      8    10.129     3.832    0.68E-04    0.20E-03    0.43E-07
   2      8    10.129     8.557    0.31E-03    0.87E-04    0.80E-07
   0      9    10.129    20.058    0.18E-03    0.69E-04    0.52E-07
   0      9    10.129     8.581    0.26E-03    0.10E-03    0.74E-07
   1      8    10.129    32.418    0.10E-03    0.20E-03    0.14E-06
   1      8    10.129    15.589    0.88E-04    0.18E-03    0.13E-06
 Optimization of the real space projectors (new method)

 maximal supplied QI-value         = 16.25
 optimisation between [QCUT,QGAM] = [ 10.24, 20.48] = [ 29.35,117.42] Ry
 Optimized for a Real-space Cutoff    1.42 Angstroem

   l    n(q)    QCUT    max X(q) W(low)/X(q) W(high)/X(q)  e(spline)
   0      9    10.239   195.377    0.83E-04    0.12E-03    0.80E-07
   0      9    10.239   191.289    0.80E-04    0.11E-03    0.77E-07
   1      8    10.239   115.174    0.25E-03    0.31E-03    0.74E-07
   1      8    10.239    87.544    0.25E-03    0.30E-03    0.73E-07
   2      8    10.239     4.840    0.44E-04    0.82E-04    0.46E-07
  PAW C 22Mar2012                       :
  PAW N 21Mar2012                       :
  PAW H 06May1998                       :
  PAW Pb_d 30Apr1998                    :
  PAW I 03Oct2001                       :

 POSCAR: MA-Pb-I (Pseudocubic)  2x2x2
  positions in direct lattice
  velocities in cartesian coordinates
 exchange correlation table for  LEXCH =        2
   RHO(1)=    0.500       N(1)  =     2000
   RHO(2)=  100.500       N(2)  =     4000

 ion  position               nearest neighbor table
   1  0.451  1.000  0.498-  36 1.10  26 1.10  19 1.10  16 1.47
   2  0.451  1.000  0.998-  35 1.10  25 1.10  20 1.10  15 1.47
   3  0.451  0.500  0.498-  34 1.10  28 1.10  17 1.10  14 1.47
   4  0.451  0.500  0.998-  33 1.10  27 1.10  18 1.10  13 1.47
   5  0.951  1.000  0.498-  40 1.10  30 1.10  23 1.10  12 1.47
   6  0.951  1.000  0.998-  39 1.10  29 1.10  24 1.10  11 1.47
   7  0.951  0.500  0.498-  38 1.10  32 1.10  21 1.10  10 1.47
   8  0.951  0.500  0.998-  37 1.10  31 1.10  22 1.10   9 1.47
   9  0.067  0.500  0.013-  44 1.05  50 1.05  59 1.05   8 1.47
  10  0.067  0.500  0.513-  43 1.05  49 1.05  60 1.05   7 1.47
  11  0.067  1.000  0.013-  42 1.05  52 1.05  57 1.05   6 1.47
  12  0.067  1.000  0.513-  41 1.05  51 1.05  58 1.05   5 1.47
  13  0.567  0.500  0.013-  48 1.05  54 1.05  63 1.05   4 1.47
  14  0.567  0.500  0.513-  47 1.05  53 1.05  64 1.05   3 1.47
  15  0.567  1.000  0.013-  46 1.05  56 1.05  61 1.05   2 1.47
  16  0.567  1.000  0.513-  45 1.05  55 1.05  62 1.05   1 1.47
  17  0.432  0.500  0.412-   3 1.10
  18  0.432  0.500  0.912-   4 1.10
  19  0.432  1.000  0.412-   1 1.10
  20  0.432  1.000  0.912-   2 1.10
  21  0.932  0.500  0.412-   7 1.10
  22  0.932  0.500  0.912-   8 1.10
  23  0.932  1.000  0.412-   5 1.10
  24  0.932  1.000  0.912-   6 1.10
  25  0.418  0.072  0.036-   2 1.10
  26  0.418  0.072  0.536-   1 1.10
  27  0.418  0.572  0.036-   4 1.10
  28  0.418  0.572  0.536-   3 1.10
  29  0.918  0.072  0.036-   6 1.10
  30  0.918  0.072  0.536-   5 1.10
  31  0.918  0.572  0.036-   8 1.10
  32  0.918  0.572  0.536-   7 1.10
  33  0.418  0.428  0.036-   4 1.10
  34  0.418  0.428  0.536-   3 1.10
  35  0.418  0.928  0.036-   2 1.10
  36  0.418  0.928  0.536-   1 1.10
  37  0.918  0.428  0.036-   8 1.10
  38  0.918  0.428  0.536-   7 1.10
  39  0.918  0.928  0.036-   6 1.10
  40  0.918  0.928  0.536-   5 1.10
  41  0.103  0.067  0.480-  12 1.05
  42  0.103  0.067  0.980-  11 1.05
  43  0.103  0.567  0.480-  10 1.05
  44  0.103  0.567  0.980-   9 1.05
  45  0.603  0.067  0.480-  16 1.05
  46  0.603  0.067  0.980-  15 1.05
  47  0.603  0.567  0.480-  14 1.05
  48  0.603  0.567  0.980-  13 1.05
  49  0.103  0.432  0.480-  10 1.05
  50  0.103  0.432  0.980-   9 1.05
  51  0.103  0.932  0.480-  12 1.05
  52  0.103  0.932  0.980-  11 1.05
  53  0.603  0.432  0.480-  14 1.05
  54  0.603  0.432  0.980-  13 1.05
  55  0.603  0.932  0.480-  16 1.05
  56  0.603  0.932  0.980-  15 1.05
  57  0.089  1.000  0.094-  11 1.05
  58  0.089  1.000  0.594-  12 1.05
  59  0.089  0.500  0.094-   9 1.05
  60  0.089  0.500  0.594-  10 1.05
[...]
  82  0.223  0.000  0.753-  66 3.15  68 3.15
  83  0.223  0.500  0.253-  67 3.15  65 3.15
  84  0.223  0.500  0.753-  68 3.15  66 3.15
  85  0.723  0.000  0.253-  69 3.15  71 3.15
  86  0.723  0.000  0.753-  70 3.15  72 3.15
  87  0.723  0.500  0.253-  71 3.15  69 3.15
  88  0.723  0.500  0.753-  72 3.15  70 3.15
  89  0.483  0.250  0.215-  65 3.06  69 3.27
  90  0.483  0.250  0.715-  66 3.06  70 3.27
  91  0.483  0.750  0.215-  67 3.06  71 3.27
  92  0.483  0.750  0.715-  68 3.06  72 3.27
  93  0.983  0.250  0.215-  69 3.06  65 3.27
  94  0.983  0.250  0.715-  70 3.06  66 3.27
  95  0.983  0.750  0.215-  71 3.06  67 3.27
  96  0.983  0.750  0.715-  72 3.06  68 3.27

  LATTYP: Found a simple monoclinic cell.
 ALAT       =    12.5802402496
 B/A-ratio  =     0.9974197462
 C/A-ratio  =     1.4105278383
 COS(beta)  =    -0.7044835581

  Lattice vectors:

 A1 = ( -12.5802402496,   0.0000000000,   0.0000000000)
 A2 = (  -0.0001553879, -12.5477800360,   0.0000000000)
 A3 = (  12.5009051075,  -0.0003075861,  12.5938300832)

Analysis of symmetry for initial positions (statically):
 Subroutine PRICEL returns following result:

[...]

   4 primitive cells build up your supercell.

 Routine SETGRP: Setting up the symmetry group for a
 simple monoclinic supercell.

 Subroutine GETGRP returns: Found  1 space group operations
 (whereof  1 operations were pure point group operations)
 out of a pool of  4 trial point group operations.

The static configuration has the point symmetry C_1 .

Analysis of symmetry for dynamics (positions and initial velocities):
 Subroutine PRICEL returns following result:

[...]

 Routine SETGRP: Setting up the symmetry group for a
 simple monoclinic supercell.

 Subroutine GETGRP returns: Found  1 space group operations
 (whereof  1 operations were pure point group operations)
 out of a pool of  4 trial point group operations.

The dynamic configuration has the point symmetry C_1 .

Analysis of magnetic symmetry:
 Subroutine PRICEL returns following result:

  LATTYP: Found a simple monoclinic cell.
 ALAT       =     6.2901201248
 B/A-ratio  =     1.9948394924
 C/A-ratio  =     1.4105278383
 COS(beta)  =    -0.7044835581

  Lattice vectors:

 A1 = (  -6.2901201248,   0.0000000000,   0.0000000000)
 A2 = (  -0.0001553879, -12.5477800360,   0.0000000000)
 A3 = (   6.2504525537,  -0.0001537930,   6.2969150416)

   4 primitive cells build up your supercell.

 Subroutine MAGSYM returns: Found  1 space group operations
 (whereof  1 operations were pure point group operations)
 out of a pool of  1 trial space group operations
 (whereof  1 operations were pure point group operations)
 and found also     4 'primitive' translations

The magnetic configuration has the point symmetry C_1 .

 KPOINTS: k-points along high symmetry lines
  interpolating k-points between supplied coordinates
  k-points in reciprocal lattice
Space group operators:
 irot       det(A)        alpha          n_x          n_y          n_z        tau_x        tau_y        tau_z
    1     1.000000     0.000000     1.000000     0.000000     0.000000     0.000000     0.000000     0.000000

 I would recommend the setting:
   dimension x,y,z NGX =    62 NGY =   61 NGZ =   62
 SYSTEM =  unknown system
 POSCAR =  MA-Pb-I (Pseudocubic)  2x2x2

 Startparameter for this run:
   NWRITE =      2    write-flag & timer
   PREC   = normal    normal or accurate (medium, high low for compatibility)
   ISTART =      0    job   : 0-new  1-cont  2-samecut
   ICHARG =     11    charge: 1-file 2-atom 10-const
   ISPIN  =      2    spin polarized calculation?
   LNONCOLLINEAR =      F non collinear calculations
   LSORBIT =      F    spin-orbit coupling
   INIWAV =      1    electr: 0-lowe 1-rand  2-diag
   LASPH  =      F    aspherical Exc in radial PAW
   METAGGA=      F    non-selfconsistent MetaGGA calc.

 Electronic Relaxation 1
   ENCUT  =  400.0 eV  29.40 Ry    5.42 a.u.  20.52 20.46 20.54*2*pi/ulx,y,z
   ENINI  =  400.0     initial cutoff
   ENAUG  =  644.9 eV  augmentation charge cutoff
   NELM   =     60;   NELMIN=  2; NELMDL= -5     # of ELM steps
   EDIFF  = 0.1E-03   stopping-criterion for ELM
   LREAL  =      T    real-space projection
   NLSPLINE    = F    spline interpolate recip. space projectors
   LCOMPAT=      F    compatible to vasp.4.4
   GGA_COMPAT  = T    GGA compatible to vasp.4.4-vasp.4.6
   LMAXPAW     = -100 max onsite density
   LMAXMIX     =    4 max onsite mixed and CHGCAR
   VOSKOWN=      0    Vosko Wilk Nusair interpolation
   ROPT   =   -0.00050  -0.00050  -0.00050  -0.00050
   ROPT   =   -0.00050
 Ionic relaxation
   EDIFFG = -.2E-01   stopping-criterion for IOM
   NSW    =      0    number of steps for IOM
   NBLOCK =      1;   KBLOCK =      1    inner block; outer block
   IBRION =     -1    ionic relax: 0-MD 1-quasi-New 2-CG
   NFREE  =      0    steps in history (QN), initial steepest desc. (CG)
   ISIF   =      2    stress and relaxation
   IWAVPR =     10    prediction:  0-non 1-charg 2-wave 3-comb
   ISYM   =      2    0-nonsym 1-usesym 2-fastsym
   LCORR  =      T    Harris-Foulkes like correction to forces

   POTIM  = 0.5000    time-step for ionic-motion
[...]
   0.164E+02 0.413E-01 0.495E+02   -.177E+02 -.475E-01 -.547E+02   0.129E+01 0.578E-02 0.532E+01   0.342E-02 -.442E-04 0.229E-02
   0.164E+02 0.413E-01 0.495E+02   -.177E+02 -.475E-01 -.547E+02   0.129E+01 0.578E-02 0.532E+01   0.340E-02 -.580E-04 0.219E-02
   0.257E+02 -.387E+02 -.169E+02   -.279E+02 0.432E+02 0.193E+02   0.223E+01 -.447E+01 -.232E+01   0.548E-02 -.141E-03 -.225E-03
   0.257E+02 -.387E+02 -.169E+02   -.279E+02 0.432E+02 0.193E+02   0.223E+01 -.447E+01 -.232E+01   0.549E-02 -.138E-03 -.150E-03
   0.257E+02 -.387E+02 -.169E+02   -.279E+02 0.432E+02 0.193E+02   0.223E+01 -.447E+01 -.232E+01   0.546E-02 0.595E-04 -.206E-03
   0.257E+02 -.387E+02 -.169E+02   -.279E+02 0.432E+02 0.193E+02   0.223E+01 -.447E+01 -.232E+01   0.548E-02 0.520E-04 -.152E-03
   0.257E+02 -.387E+02 -.169E+02   -.279E+02 0.432E+02 0.193E+02   0.223E+01 -.447E+01 -.232E+01   0.547E-02 -.130E-03 -.235E-03
   0.257E+02 -.387E+02 -.169E+02   -.279E+02 0.432E+02 0.193E+02   0.223E+01 -.447E+01 -.232E+01   0.545E-02 -.136E-03 -.136E-03
   0.257E+02 -.387E+02 -.169E+02   -.279E+02 0.432E+02 0.193E+02   0.223E+01 -.447E+01 -.232E+01   0.547E-02 0.530E-04 -.242E-03
   0.257E+02 -.387E+02 -.169E+02   -.279E+02 0.432E+02 0.193E+02   0.223E+01 -.447E+01 -.232E+01   0.544E-02 0.641E-04 -.114E-03
   0.258E+02 0.386E+02 -.171E+02   -.280E+02 -.431E+02 0.194E+02   0.224E+01 0.446E+01 -.233E+01   0.544E-02 0.253E-03 -.301E-03
   0.258E+02 0.386E+02 -.171E+02   -.280E+02 -.431E+02 0.194E+02   0.224E+01 0.446E+01 -.233E+01   0.545E-02 0.248E-03 -.224E-03
   0.258E+02 0.386E+02 -.171E+02   -.280E+02 -.431E+02 0.194E+02   0.224E+01 0.446E+01 -.233E+01   0.542E-02 0.707E-04 -.279E-03
   0.258E+02 0.386E+02 -.171E+02   -.280E+02 -.431E+02 0.194E+02   0.224E+01 0.446E+01 -.233E+01   0.544E-02 0.803E-04 -.223E-03
   0.258E+02 0.386E+02 -.171E+02   -.280E+02 -.431E+02 0.194E+02   0.224E+01 0.446E+01 -.233E+01   0.543E-02 0.242E-03 -.313E-03
   0.258E+02 0.386E+02 -.171E+02   -.280E+02 -.431E+02 0.194E+02   0.224E+01 0.446E+01 -.233E+01   0.541E-02 0.246E-03 -.211E-03
   0.258E+02 0.386E+02 -.171E+02   -.280E+02 -.431E+02 0.194E+02   0.224E+01 0.446E+01 -.233E+01   0.543E-02 0.768E-04 -.314E-03
   0.258E+02 0.386E+02 -.171E+02   -.280E+02 -.431E+02 0.194E+02   0.224E+01 0.446E+01 -.233E+01   0.540E-02 0.672E-04 -.186E-03
   -.273E+02 -.483E+02 0.271E+02   0.302E+02 0.536E+02 -.297E+02   -.288E+01 -.531E+01 0.266E+01   0.200E-02 0.344E-02 -.420E-03
   -.273E+02 -.483E+02 0.271E+02   0.302E+02 0.536E+02 -.297E+02   -.288E+01 -.531E+01 0.266E+01   0.200E-02 0.344E-02 -.499E-03
   -.273E+02 -.483E+02 0.271E+02   0.302E+02 0.536E+02 -.297E+02   -.288E+01 -.531E+01 0.266E+01   0.201E-02 0.365E-02 -.437E-03
   -.273E+02 -.483E+02 0.271E+02   0.302E+02 0.536E+02 -.297E+02   -.288E+01 -.531E+01 0.266E+01   0.200E-02 0.364E-02 -.483E-03
   -.273E+02 -.483E+02 0.271E+02   0.302E+02 0.536E+02 -.297E+02   -.288E+01 -.531E+01 0.266E+01   0.200E-02 0.345E-02 -.399E-03
   -.273E+02 -.483E+02 0.271E+02   0.302E+02 0.536E+02 -.297E+02   -.288E+01 -.531E+01 0.266E+01   0.199E-02 0.345E-02 -.525E-03
   -.273E+02 -.483E+02 0.271E+02   0.302E+02 0.536E+02 -.297E+02   -.288E+01 -.531E+01 0.266E+01   0.200E-02 0.364E-02 -.378E-03
   -.273E+02 -.483E+02 0.271E+02   0.302E+02 0.536E+02 -.297E+02   -.288E+01 -.531E+01 0.266E+01   0.200E-02 0.365E-02 -.546E-03
   -.271E+02 0.483E+02 0.269E+02   0.300E+02 -.537E+02 -.295E+02   -.287E+01 0.531E+01 0.264E+01   0.194E-02 -.324E-02 -.404E-03
   -.271E+02 0.483E+02 0.269E+02   0.300E+02 -.537E+02 -.295E+02   -.287E+01 0.531E+01 0.264E+01   0.194E-02 -.324E-02 -.486E-03
   -.271E+02 0.483E+02 0.269E+02   0.300E+02 -.537E+02 -.295E+02   -.287E+01 0.531E+01 0.264E+01   0.195E-02 -.342E-02 -.420E-03
   -.271E+02 0.483E+02 0.269E+02   0.300E+02 -.537E+02 -.295E+02   -.287E+01 0.531E+01 0.264E+01   0.195E-02 -.342E-02 -.464E-03
   -.271E+02 0.483E+02 0.269E+02   0.300E+02 -.537E+02 -.295E+02   -.287E+01 0.531E+01 0.264E+01   0.194E-02 -.325E-02 -.385E-03
   -.271E+02 0.483E+02 0.269E+02   0.300E+02 -.537E+02 -.295E+02   -.287E+01 0.531E+01 0.264E+01   0.194E-02 -.324E-02 -.510E-03
   -.271E+02 0.483E+02 0.269E+02   0.300E+02 -.537E+02 -.295E+02   -.287E+01 0.531E+01 0.264E+01   0.195E-02 -.342E-02 -.360E-03
   -.271E+02 0.483E+02 0.269E+02   0.300E+02 -.537E+02 -.295E+02   -.287E+01 0.531E+01 0.264E+01   0.195E-02 -.342E-02 -.529E-03
   -.140E+02 -.658E-01 -.589E+02   0.157E+02 0.718E-01 0.652E+02   -.167E+01 -.530E-02 -.628E+01   -.135E-03 -.115E-03 -.108E-03
   -.140E+02 -.658E-01 -.589E+02   0.157E+02 0.718E-01 0.652E+02   -.167E+01 -.530E-02 -.628E+01   -.162E-03 -.903E-04 -.670E-04
   -.140E+02 -.660E-01 -.589E+02   0.157E+02 0.717E-01 0.652E+02   -.167E+01 -.530E-02 -.628E+01   -.138E-03 0.156E-03 -.106E-03
   -.140E+02 -.660E-01 -.589E+02   0.157E+02 0.717E-01 0.652E+02   -.167E+01 -.530E-02 -.628E+01   -.161E-03 0.130E-03 -.679E-04
[...]
   -.117E+02 -.407E-01 -.158E+02   0.119E+02 0.391E-01 0.161E+02   -.927E-01 0.268E-03 -.332E+00   -.614E-01 0.124E-02 0.392E-01
   -.117E+02 -.401E-01 -.158E+02   0.119E+02 0.391E-01 0.161E+02   -.927E-01 0.268E-03 -.332E+00   -.615E-01 0.649E-03 0.392E-01
   -.117E+02 -.380E-01 -.158E+02   0.119E+02 0.392E-01 0.161E+02   -.927E-01 0.145E-03 -.332E+00   -.617E-01 -.132E-02 0.392E-01
   -.117E+02 -.373E-01 -.158E+02   0.119E+02 0.392E-01 0.161E+02   -.927E-01 0.145E-03 -.332E+00   -.616E-01 -.202E-02 0.391E-01
   -.117E+02 -.399E-01 -.158E+02   0.119E+02 0.391E-01 0.161E+02   -.927E-01 0.268E-03 -.332E+00   -.617E-01 0.529E-03 0.392E-01
   -.117E+02 -.407E-01 -.158E+02   0.119E+02 0.391E-01 0.161E+02   -.927E-01 0.268E-03 -.332E+00   -.616E-01 0.123E-02 0.391E-01
   -.247E+01 0.273E-01 -.383E+01   0.305E+01 -.257E-01 0.361E+01   -.638E+00 -.425E-02 0.348E+00   0.282E-01 -.170E-03 -.794E-01
   -.247E+01 0.274E-01 -.383E+01   0.305E+01 -.257E-01 0.361E+01   -.638E+00 -.425E-02 0.348E+00   0.283E-01 -.171E-03 -.792E-01
   -.247E+01 0.271E-01 -.383E+01   0.305E+01 -.257E-01 0.361E+01   -.638E+00 -.421E-02 0.348E+00   0.274E-01 0.464E-04 -.793E-01
   -.247E+01 0.271E-01 -.383E+01   0.305E+01 -.257E-01 0.361E+01   -.638E+00 -.421E-02 0.348E+00   0.288E-01 0.485E-04 -.791E-01
   -.247E+01 0.273E-01 -.383E+01   0.305E+01 -.257E-01 0.361E+01   -.638E+00 -.425E-02 0.348E+00   0.280E-01 -.169E-03 -.794E-01
   -.247E+01 0.274E-01 -.383E+01   0.305E+01 -.257E-01 0.361E+01   -.638E+00 -.425E-02 0.348E+00   0.279E-01 -.169E-03 -.792E-01
   -.247E+01 0.271E-01 -.383E+01   0.305E+01 -.257E-01 0.361E+01   -.638E+00 -.421E-02 0.348E+00   0.286E-01 0.473E-04 -.793E-01
   -.247E+01 0.271E-01 -.383E+01   0.305E+01 -.257E-01 0.361E+01   -.638E+00 -.421E-02 0.348E+00   0.271E-01 0.503E-04 -.790E-01
   -.621E+02 -.487E-01 -.839E+01   -.426E-12 0.153E-12 0.334E-12   0.621E+02 -.597E-01 0.830E+01   -.853E-01 0.819E-01 -.211E-01

 POSITION                                       TOTAL-FORCE (eV/Angst)
      5.63919     12.54736      6.27352         0.010615      0.014980     -0.079845
      5.59952     12.54721     12.57044         0.010615      0.014980     -0.079845
      5.63911      6.27347      6.27352         0.010616      0.014965     -0.079836
      5.59944      6.27332     12.57044         0.010616      0.014965     -0.079836
     11.92931     12.54736      6.27352         0.010615      0.014980     -0.079845
     11.88964     12.54721     12.57044         0.010615      0.014980     -0.079845
     11.92923      6.27347      6.27352         0.010616      0.014965     -0.079836
     11.88956      6.27332     12.57044         0.010616      0.014965     -0.079836
      0.84668      6.27287      0.16986        -0.071505     -0.016526     -0.015444
      0.80702      6.27272      6.46678        -0.071505     -0.016526     -0.015444
      0.84676     12.54676      0.16986        -0.071510     -0.016460     -0.015437
      0.80709     12.54661      6.46678        -0.071510     -0.016460     -0.015437
      7.13680      6.27287      0.16986        -0.071505     -0.016526     -0.015444
      7.09714      6.27272      6.46678        -0.071505     -0.016526     -0.015444
      7.13688     12.54676      0.16986        -0.071510     -0.016460     -0.015437
      7.09721     12.54661      6.46678        -0.071510     -0.016460     -0.015437
      5.40796      6.27224      5.19380         0.025519     -0.000275      0.052719
      5.36829      6.27209     11.49071         0.025519     -0.000275      0.052719
      5.40804     12.54613      5.19380         0.025517     -0.000274      0.052717
      5.36837     12.54598     11.49071         0.025517     -0.000274      0.052717
     11.69808      6.27224      5.19380         0.025519     -0.000275      0.052719
     11.65841      6.27209     11.49071         0.025519     -0.000275      0.052719
     11.69816     12.54613      5.19380         0.025517     -0.000274      0.052717
     11.65849     12.54598     11.49071         0.025517     -0.000274      0.052717
      5.25658      0.90271      0.44753        -0.004346      0.014862      0.012209
      5.21691      0.90255      6.74445        -0.004346      0.014862      0.012209
      5.25666      7.17660      0.44753        -0.004346      0.014863      0.012211
      5.21699      7.17644      6.74445        -0.004346      0.014863      0.012211
     11.54670      0.90271      0.44753        -0.004346      0.014862      0.012209
     11.50703      0.90255      6.74445        -0.004346      0.014862      0.012209
     11.54678      7.17660      0.44753        -0.004346      0.014863      0.012211
     11.50711      7.17644      6.74445        -0.004346      0.014863      0.012211
      5.25497      5.37333      0.45016        -0.006970     -0.025254      0.017562
      5.21531      5.37318      6.74708        -0.006970     -0.025254      0.017562
      5.25505     11.64722      0.45016        -0.006974     -0.025267      0.017568
      5.21538     11.64707      6.74708        -0.006974     -0.025267      0.017568
     11.54509      5.37333      0.45016        -0.006970     -0.025254      0.017562
     11.50543      5.37318      6.74708        -0.006970     -0.025254      0.017562
     11.54517     11.64722      0.45016        -0.006974     -0.025267      0.017568
     11.50550     11.64707      6.74708        -0.006974     -0.025267      0.017568
      1.26266      0.84333      6.04527         0.029271      0.069217      0.031546
      1.22299      0.84317     12.34218         0.029271      0.069217      0.031546
      1.26274      7.11722      6.04527         0.029281      0.069240      0.031539
      1.22307      7.11706     12.34218         0.029281      0.069240      0.031539
      7.55278      0.84333      6.04527         0.029271      0.069217      0.031546
      7.51311      0.84317     12.34218         0.029271      0.069217      0.031546
      7.55286      7.11722      6.04527         0.029281      0.069240      0.031539
      7.51319      7.11706     12.34218         0.029281      0.069240      0.031539
      1.26134      5.42572      6.04746         0.024710     -0.056076      0.037922
      1.22168      5.42557     12.34438         0.024710     -0.056076      0.037922
      1.26142     11.69961      6.04746         0.024725     -0.056108      0.037911
      1.22175     11.69946     12.34438         0.024725     -0.056108      0.037911
      7.55146      5.42572      6.04746         0.024710     -0.056076      0.037922
      7.51180      5.42557     12.34438         0.024710     -0.056076      0.037922
      7.55154     11.69961      6.04746         0.024725     -0.056108      0.037911
      7.51187     11.69946     12.34438         0.024725     -0.056108      0.037911
      1.11625     12.54766      1.18688         0.035561      0.000868     -0.004679
      1.07658     12.54751      7.48380         0.035561      0.000868     -0.004679
      1.11617      6.27377      1.18688         0.035563      0.000874     -0.004679
      1.07650      6.27362      7.48380         0.035563      0.000874     -0.004679
[...]
      2.73961     -0.00023      9.48603         0.022289      0.000267     -0.021562
      2.77936      6.27382      3.18912         0.022289      0.000197     -0.021566
      2.73969      6.27366      9.48603         0.022289      0.000197     -0.021566
      9.06940     -0.00007      3.18912         0.022289      0.000267     -0.021562
      9.02973     -0.00023      9.48603         0.022289      0.000267     -0.021562
      9.06948      6.27382      3.18912         0.022289      0.000197     -0.021566
      9.02981      6.27366      9.48603         0.022289      0.000197     -0.021566
      6.05407      3.13834      2.70648        -0.028037     -0.002504      0.044938
      6.01440      3.13819      9.00339        -0.028037     -0.002504      0.044938
      6.05414      9.41223      2.70648        -0.028018     -0.002509      0.044938
      6.01448      9.41208      9.00339        -0.028018     -0.002509      0.044938
     12.34419      3.13834      2.70648        -0.028037     -0.002504      0.044938
     12.30452      3.13819      9.00339        -0.028037     -0.002504      0.044938
     12.34426      9.41223      2.70648        -0.028018     -0.002509      0.044938
     12.30460      9.41208      9.00339        -0.028018     -0.002509      0.044938
    total drift:                               -0.099679     -0.026538     -0.107322

  FREE ENERGIE OF THE ION-ELECTRON SYSTEM (eV)
  free  energy   TOTEN  =      -441.13589970 eV

  energy  without entropy=     -441.00387365  energy(sigma->0) =     -441.06988668

 writing wavefunctions

 total charge

[...]

 magnetization (x)

# of ion     s       p       d       tot
  1       -0.000   0.000   0.000   0.000
  2       -0.000   0.000   0.000   0.000
  3       -0.000   0.000   0.000   0.000
  4       -0.000   0.000   0.000   0.000
  5       -0.000  -0.000   0.000  -0.000
  6       -0.000   0.000   0.000   0.000
  7       -0.000   0.000   0.000   0.000
  8       -0.000   0.000   0.000   0.000
  9       -0.000  -0.000   0.000  -0.000
 10       -0.000  -0.000   0.000  -0.000
 11       -0.000  -0.000   0.000  -0.000
 12        0.000  -0.000   0.000  -0.000
 13        0.000  -0.000   0.000  -0.000
 14       -0.000  -0.000   0.000  -0.000
 15       -0.000  -0.000   0.000  -0.000
 16       -0.000  -0.000   0.000  -0.000
 17        0.000   0.000   0.000   0.000
 18        0.000   0.000   0.000   0.000
 19        0.000   0.000   0.000   0.000
 20        0.000   0.000   0.000   0.000
 21        0.000   0.000   0.000   0.000
 22        0.000  -0.000   0.000   0.000
 23        0.000  -0.000   0.000   0.000
 24        0.000   0.000   0.000   0.000
 25        0.000  -0.000   0.000   0.000
 26        0.000  -0.000   0.000   0.000
 27        0.000  -0.000   0.000   0.000
 28        0.000  -0.000   0.000   0.000
 29        0.000   0.000   0.000   0.000
 30        0.000  -0.000   0.000   0.000
 31        0.000   0.000   0.000   0.000
 32        0.000  -0.000   0.000   0.000
 33        0.000  -0.000   0.000   0.000
 34       -0.000  -0.000   0.000  -0.000
 35        0.000  -0.000   0.000   0.000
 36        0.000  -0.000   0.000   0.000
 37        0.000   0.000   0.000   0.000
 38        0.000  -0.000   0.000   0.000
 39        0.000  -0.000   0.000   0.000
 40        0.000  -0.000   0.000   0.000
 41       -0.000  -0.000   0.000  -0.000
 42       -0.000  -0.000   0.000  -0.000
 43        0.000  -0.000   0.000   0.000
 44       -0.000  -0.000   0.000  -0.000
 45        0.000  -0.000   0.000  -0.000
 46        0.000  -0.000   0.000   0.000
 47        0.000  -0.000   0.000  -0.000
 48        0.000  -0.000   0.000   0.000
 49        0.000  -0.000   0.000   0.000
 50       -0.000  -0.000   0.000  -0.000
 51        0.000  -0.000   0.000   0.000
 52        0.000  -0.000   0.000   0.000
 53        0.000  -0.000   0.000   0.000
 54        0.000  -0.000   0.000   0.000
 55        0.000  -0.000   0.000   0.000
 56        0.000  -0.000   0.000   0.000
 57        0.000  -0.000   0.000   0.000
 58        0.000  -0.000   0.000   0.000
 59        0.000  -0.000   0.000   0.000
 60        0.000  -0.000   0.000   0.000
[...]
 82       -0.000  -0.000   0.000  -0.000
 83       -0.000   0.000  -0.000  -0.000
 84       -0.000  -0.000  -0.000  -0.000
 85       -0.000  -0.000  -0.000  -0.000
 86       -0.000  -0.000  -0.000  -0.000
 87       -0.000   0.000  -0.000  -0.000
 88       -0.000   0.000  -0.000  -0.000
 89       -0.000  -0.000   0.000  -0.000
 90       -0.000  -0.000  -0.000  -0.000
 91        0.000  -0.000   0.000   0.000
 92       -0.000  -0.000  -0.000  -0.000
 93       -0.000  -0.000  -0.000  -0.000
 94        0.000  -0.000   0.000   0.000
 95       -0.000  -0.000  -0.000  -0.000
 96       -0.000  -0.000  -0.000  -0.000
tot        0.000  -0.000   0.000  -0.000